Year Ft Rg C
2019  3  1  3304.8524
2020  3  1  2626.1140
2021  3  1  2669.1648
2022  3  1  2644.8838
2023  3  1  3490.4391
2024  3  1  3006.3576
2025  3  1   846.7967
2026  3  1   766.9110
2027  3  1  1010.2152
2028  3  1  2644.7086
2029  3  1  2272.2386
2030  3  1  1927.6083
2031  3  1  2278.5446
2032  3  1  1660.7348
2033  3  1  1849.7731
2034  3  1  1876.2091
2035  3  1  1707.4702
2036  3  1  1093.5011
2037  3  1   955.1914
2038  3  1  1795.4362
2039  3  1  1336.1267
2040  3  1  1257.0177
2041  3  1  1452.1158
2042  3  1  1561.9800
2043  3  1  1463.3804
2044  3  1  1351.0361
2045  3  1  1501.7304
