pseudo ref pts
2019       18443.3647  0.5580  0.5429  0.6653  0.6340       14610.6068
2020       27341.3838  0.3431  0.4941  0.9421  0.9196       16502.8924
2021       28387.1013  0.3216  0.4771  0.5589  1.0539       15866.0386
2022       34105.8502  0.4129  0.4513  0.6834  1.4502       16507.2975
2023       26141.0749  0.6445  0.4114  0.9600  1.3308       15538.5598
2024       11062.2215  2.0482  0.5995  2.9212  0.7736       14394.5400
2025       16908.6969  0.9190  0.3763  4.4140  1.2890       15160.5405
2026       12946.0935  0.4490  0.4108  2.8002  0.9530       13806.8552
2027       21763.3448  0.3144  0.3782  0.7335  1.4565       14100.8097
2028       22643.2948  0.4731  0.5013  0.7590  1.4703       15106.5773
2029        8313.4658  0.9420  0.5944  0.1262  0.5694       12604.9275
2030       14653.2790  0.3986  0.5387  0.7853  0.9321       14771.6393
2031       20804.2800  0.2134  0.3155  0.9361  1.2463       14855.9489
2032       24627.2082  0.3037  0.4228  2.7645  1.4027       16940.0860
2033       21357.6824  0.3145  0.4093  1.2558  1.2439       16699.0345
2034       27377.9262  0.2778  0.3011  1.8107  1.6227       17417.0638
2035       22045.7349  0.2457  0.2219  1.8401  1.2904       16702.2329
2036       22118.1592  0.1485  0.2493  1.3198  1.3386       16825.1679
2037       22428.1009  0.1301  0.2549  1.2892  1.3271       16631.1821
2038       38928.8020  0.1244  0.2473  1.1743  2.2366       17413.2517
2039       33930.2408  0.1303  0.2428  2.0201  1.9207       15645.2452
2040       49242.5877  0.1150  0.2168  1.5472  2.5467       18012.7518
2041       38651.3469  0.1440  0.2587  2.5330  1.9540       18481.1740
2042       45476.8899  0.1665  0.2580  1.2239  2.0955       19874.8937
2043       42784.5149  0.1938  0.2823  1.8596  1.9411       19780.9124
2044       27101.2662  0.3051  0.2419  0.5734  1.4207       17140.8785
2045       29837.5555  0.3030  0.2290  2.5992  1.9259       19172.4610
