Year Ft Rg C
2019  3  1  3304.8524
2020  3  1  2751.3743
2021  3  1  3619.0667
2022  3  1  3545.6453
2023  3  1  5084.3446
2024  3  1  6820.5492
2025  3  1  7620.7844
2026  3  1  9867.4621
2027  3  1 11459.2459
2028  3  1 19453.2450
2029  3  1 13926.5498
2030  3  1 11295.4349
2031  3  1 11906.6958
2032  3  1 11642.1983
2033  3  1 14070.0765
2034  3  1 13269.6220
2035  3  1 12427.1075
2036  3  1  9859.0525
2037  3  1 10662.8691
2038  3  1 15636.9269
2039  3  1 11880.2028
2040  3  1 13676.4364
2041  3  1 12556.8533
2042  3  1 12914.4540
2043  3  1 13380.4431
2044  3  1 11856.5701
2045  3  1 10741.3558
