pseudo ref pts
2019       18443.3647  0.5544  0.5429  0.6653  0.6340       87666.0529
2020       31911.0055  0.2356  0.4865  0.9421  1.0733       99076.4147
2021       47337.6982  0.1924  0.4698  0.5590  1.3652       95119.8356
2022       77388.2345  0.2011  0.4478  0.6837  1.9082       98968.5520
2023       84356.5155  0.2018  0.4083  0.9622  1.8676       93395.3010
2024       59592.8058  0.7911  0.5949  2.9326  1.1387       86013.1567
2025      124797.0112  0.3472  0.3734  4.4310  1.8983       91411.7903
2026      103609.4738  0.5026  0.4140  2.8078  1.2597       83014.9571
2027      154071.8228  0.3976  0.3812  0.7341  1.5832       84672.6347
2028      145156.6703  0.5450  0.5013  0.7590  1.4046       90599.1460
2029       50300.7856  1.0691  0.5944  0.1260  0.5172       75497.8251
2030       84821.6009  0.4151  0.5387  0.7839  0.8692       88528.1104
2031      120119.8530  0.2173  0.3131  0.9350  1.2051       89038.4712
2032      143507.3353  0.3341  0.4228  2.7651  1.3878      101610.0180
2033      123244.3908  0.3587  0.4093  1.2559  1.2429      100304.9442
2034      156026.8326  0.3002  0.3034  1.8108  1.6162      104260.5133
2035      125844.3916  0.2671  0.2236  1.8402  1.2816      100009.3758
2036      126579.7950  0.1792  0.2512  1.3200  1.3350      100852.1531
2037      126655.9489  0.1707  0.2588  1.2892  1.3227       99533.5586
2038      215049.4529  0.1546  0.2492  1.1740  2.2117      104375.8612
2039      185148.0622  0.1628  0.2447  2.0191  1.8904       93805.3123
2040      266540.5187  0.1446  0.2201  1.5462  2.5108      107795.2578
2041      206965.7026  0.1693  0.2607  2.5317  1.9338      110985.3532
2042      244691.7451  0.1956  0.2599  1.2234  2.0855      118988.3414
2043      229821.0515  0.2261  0.2845  1.8595  1.9360      118652.1254
2044      144599.7619  0.3455  0.2419  0.5735  1.4193      103378.5394
2045      158006.1528  0.3270  0.2290  2.6023  1.9160      115397.7027
