Year Ft Rg C
2019  3  1  3304.8524
2020  3  1  4414.3363
2021  3  1  4721.2851
2022  3  1  5186.3373
2023  3  1  4627.2281
2024  3  1  3112.6568
2025  3  1  3672.1887
2026  3  1  6044.4439
2027  3  1  6061.2518
2028  3  1 10195.3521
2029  3  1  6700.1732
2030  3  1  4579.5720
2031  3  1  5098.3206
2032  3  1  5476.2025
2033  3  1  5971.1776
2034  3  1  5749.4400
2035  3  1  4863.7001
2036  3  1  5438.9154
2037  3  1  5681.7772
2038  3  1  6894.4162
2039  3  1  6076.5064
2040  3  1  5903.8174
2041  3  1  5879.3373
2042  3  1  6279.5727
2043  3  1  6820.9670
2044  3  1  4765.8197
2045  3  1  4960.8695
