pseudo ref pts
2019       18443.3647  0.5573  0.5429  0.6653  0.6340       29222.0176
2020       28255.3282  0.3709  0.5016  0.9421  0.9503       33043.1219
2021       31453.3740  0.3412  0.4843  0.5590  1.1092       31761.0781
2022       40807.9110  0.4347  0.4582  0.6835  1.5387       33065.6036
2023       33429.1794  0.4908  0.4146  0.9607  1.4291       31124.6997
2024       17950.0723  1.2261  0.5949  2.9264  0.8762       28829.1283
2025       35941.0404  0.5948  0.3792  4.4224  1.5776       30391.0830
2026       29336.8288  0.6718  0.4237  2.8062  1.1409       27596.3610
2027       44280.9153  0.5042  0.3870  0.7345  1.5573       28250.3504
2028       42134.4944  0.6818  0.5129  0.7596  1.4073       30066.8224
2029       14323.8492  1.2732  0.6034  0.1261  0.5190       25151.6532
2030       23816.1574  0.4661  0.5469  0.7840  0.8636       29550.7400
2031       34794.7731  0.2450  0.3203  0.9349  1.2066       29561.0237
2032       42945.2555  0.3897  0.4292  2.7642  1.4140       33899.9190
2033       37069.7414  0.3926  0.4156  1.2559  1.2726       33400.0638
2034       47849.8813  0.3415  0.3058  1.8110  1.6481       34771.7179
2035       38823.9001  0.2869  0.2253  1.8404  1.2948       33317.9073
2036       39773.1515  0.2255  0.2570  1.3200  1.3547       33586.1454
2037       39068.9960  0.2167  0.2648  1.2892  1.3250       33134.8733
2038       65192.5803  0.1801  0.2530  1.1741  2.1984       34781.8131
2039       56240.3881  0.2028  0.2484  2.0194  1.8691       31347.1588
2040       80134.3807  0.1679  0.2218  1.5465  2.4892       36003.0145
2041       62579.7683  0.2059  0.2627  2.5320  1.9321       37061.7243
2042       73484.0951  0.2354  0.2619  1.2235  2.0775       39859.4731
2043       68205.8106  0.2779  0.2866  1.8595  1.9281       39736.8488
2044       42014.8711  0.3795  0.2456  0.5734  1.4010       34307.1265
2045       46397.8218  0.3717  0.2326  2.6004  1.9002       38345.9330
