Year Ft Rg C
2019  3  1  3304.8524
2020  3  1  4489.7012
2021  3  1  4125.8809
2022  3  1  4088.3485
2023  3  1  5395.3717
2024  3  1  4647.0992
2025  3  1  5089.0041
2026  3  1  1694.8126
2027  3  1  2187.6834
2028  3  1  4752.3680
2029  3  1  3299.4372
2030  3  1  2799.0118
2031  3  1  3308.5940
2032  3  1  2359.0726
2033  3  1  2869.9491
2034  3  1  2987.0041
2035  3  1  2647.5413
2036  3  1  2531.9696
2037  3  1  2705.1282
2038  3  1  3230.7122
2039  3  1  2823.1252
2040  3  1  2534.6491
2041  3  1  2834.0228
2042  3  1  3064.3828
2043  3  1  3171.2166
2044  3  1  2927.7610
2045  3  1  3254.3229
