Year Ft Rg C
2019  3  1  3304.8524
2020  3  1  2451.7413
2021  3  1  2309.5860
2022  3  1  2288.5761
2023  3  1  3020.2217
2024  3  1  2601.3536
2025  3  1   897.8992
2026  3  1  1013.1997
2027  3  1  1140.1789
2028  3  1  2578.7108
2029  3  1  2361.9029
2030  3  1  2003.6732
2031  3  1  2368.4578
2032  3  1  1052.6774
2033  3  1  1265.3325
2034  3  1  1703.2287
2035  3  1  1784.2031
2036  3  1  1087.2015
2037  3  1  1240.4072
2038  3  1  1718.4401
2039  3  1  1479.0607
2040  3  1  1566.5819
2041  3  1  1498.8964
2042  3  1  2071.7107
2043  3  1  1982.7147
2044  3  1  1830.5009
2045  3  1  2034.6746
