pseudo ref pts
2019       18443.3647  0.5580  0.5429  0.6653  0.6340       14610.6068
2020       27341.3838  0.3326  0.4941  0.9421  0.9196       16490.4105
2021       28542.8612  0.2995  0.4735  0.5589  1.0568       15923.0262
2022       34734.7965  0.3840  0.4513  0.6834  1.4588       16485.7882
2023       27194.7613  0.5777  0.4114  0.9601  1.3475       15518.3128
2024       11908.5964  1.7142  0.5995  2.9222  0.7907       14370.8670
2025       18264.3463  0.8485  0.3763  4.4156  1.3123       15172.6337
2026       13551.3009  0.4810  0.4140  2.8009  0.9497       13794.9960
2027       22158.8944  0.3364  0.3782  0.7334  1.4272       14135.4614
2028       22658.3506  0.4698  0.5052  0.7588  1.4333       15028.1305
2029        8318.7920  0.9630  0.5944  0.1261  0.5602       12609.5049
2030       14569.7640  0.4097  0.5428  0.7850  0.9241       14703.6226
2031       20613.7177  0.2204  0.3179  0.9359  1.2423       14787.5440
2032       24350.1650  0.2676  0.4195  2.7643  1.3973       16922.5377
2033       21674.9835  0.2773  0.4062  1.2558  1.2519       16701.8278
2034       28334.0042  0.2590  0.3011  1.8109  1.6458       17408.8066
2035       22914.2088  0.2375  0.2219  1.8404  1.3120       16728.8601
2036       22845.6428  0.1484  0.2493  1.3200  1.3464       16815.9892
2037       22944.2885  0.1433  0.2569  1.2893  1.3217       16585.9688
2038       38975.9422  0.1257  0.2473  1.1742  2.2086       17394.1551
2039       33843.4683  0.1367  0.2428  2.0199  1.8984       15674.1443
2040       48721.4472  0.1210  0.2185  1.5469  2.5183       17981.4957
2041       37970.7916  0.1446  0.2587  2.5327  1.9417       18516.1615
2042       44855.2152  0.1801  0.2599  1.2238  2.0875       19857.7227
2043       41621.8027  0.2074  0.2845  1.8595  1.9306       19778.9532
2044       26095.1492  0.3287  0.2419  0.5734  1.4117       17216.9470
2045       28274.0786  0.3363  0.2290  2.5987  1.9006       19257.5454
