Year Ft Rg C
2019  3  1  3304.8524
2020  3  1  2664.0727
2021  3  1  3410.8249
2022  3  1  4896.3693
2023  3  1  6792.6753
2024  3  1  5579.7502
2025  3  1  6981.9531
2026  3  1  9088.4483
2027  3  1 10303.8769
2028  3  1 15104.7754
2029  3  1 10821.5081
2030  3  1  8339.3627
2031  3  1  9291.4007
2032  3  1  9600.1441
2033  3  1 10178.5949
2034  3  1  9321.4770
2035  3  1  8778.1949
2036  3  1  8838.9374
2037  3  1  9167.7972
2038  3  1 11744.8038
2039  3  1  9889.5999
2040  3  1  9595.9466
2041  3  1  9039.4735
2042  3  1  9990.4217
2043  3  1 10768.0565
2044  3  1  8499.9406
2045  3  1  9336.5027
