pseudo ref pts
2019       18443.3647  0.5544  0.5429  0.6653  0.6340       87666.0529
2020       31911.0055  0.2275  0.4865  0.9421  1.0733       99147.5116
2021       47495.2425  0.1730  0.4698  0.5590  1.3676       95547.7189
2022       78414.1957  0.2207  0.4513  0.6837  1.9166       99080.3621
2023       84179.5451  0.2206  0.4146  0.9622  1.8680       93026.2985
2024       58731.4760  0.7568  0.5903  2.9326  1.1327       86334.9164
2025      124863.6936  0.3346  0.3763  4.4309  1.8929       90974.9976
2026      104453.1032  0.4770  0.4140  2.8077  1.2649       83065.9837
2027      156626.2349  0.3697  0.3812  0.7341  1.5997       84670.7173
2028      148949.5589  0.4781  0.5013  0.7590  1.4164       90528.2536
2029       52970.3002  0.9337  0.5898  0.1260  0.5244       75737.2472
2030       91759.1782  0.3369  0.5346  0.7840  0.8867       88624.8011
2031      131500.0438  0.1790  0.3131  0.9351  1.2308       88810.7456
2032      157057.0476  0.2960  0.4195  2.7652  1.4044      101974.6977
2033      134667.6170  0.3087  0.4062  1.2559  1.2472      100408.0588
2034      170610.4947  0.2619  0.3011  1.8108  1.6156      104233.2249
2035      137214.2501  0.2345  0.2219  1.8403  1.2800       99984.9073
2036      137161.1371  0.1641  0.2512  1.3200  1.3313      100814.9310
2037      135611.7253  0.1537  0.2588  1.2892  1.3133       99464.4394
2038      228882.1139  0.1331  0.2473  1.1739  2.1939      104574.8746
2039      198253.2733  0.1439  0.2447  2.0190  1.8828       93716.0424
2040      285288.5789  0.1246  0.2185  1.5462  2.5104      107840.4411
2041      223156.2556  0.1474  0.2587  2.5317  1.9422      111043.3158
2042      264704.0973  0.1699  0.2580  1.2234  2.0925      119366.7106
2043      250701.9718  0.1986  0.2823  1.8595  1.9482      119129.0315
2044      159090.0565  0.3005  0.2419  0.5735  1.4287      103081.3810
2045      177255.7841  0.2891  0.2290  2.6025  1.9387      115336.6552
