Year Ft Rg C
2019  3  1  3304.8524
2020  3  1  4414.3363
2021  3  1  4721.2851
2022  3  1  5115.5133
2023  3  1  4512.9868
2024  3  1  3308.2340
2025  3  1  3403.0357
2026  3  1  5753.5750
2027  3  1  5667.2823
2028  3  1  9713.4285
2029  3  1  7132.8265
2030  3  1  4419.8985
2031  3  1  4967.6590
2032  3  1  5855.7312
2033  3  1  5838.1017
2034  3  1  5047.7652
2035  3  1  4668.5323
2036  3  1  4932.0325
2037  3  1  5624.8394
2038  3  1  7070.6717
2039  3  1  6035.2339
2040  3  1  5922.7297
2041  3  1  5596.3505
2042  3  1  6203.0219
2043  3  1  6311.3737
2044  3  1  4914.7289
2045  3  1  4977.5244
