pseudo ref pts
2019       18443.3647  0.5573  0.5429  0.6653  0.6340       29222.0176
2020       28255.3282  0.3709  0.5016  0.9421  0.9503       33043.1219
2021       31453.3740  0.3412  0.4843  0.5590  1.1092       31761.0781
2022       40807.9110  0.4314  0.4582  0.6835  1.5387       33058.9468
2023       33510.9693  0.4883  0.4146  0.9607  1.4300       31094.2278
2024       18022.9285  1.2563  0.5995  2.9264  0.8773       28694.7077
2025       35809.0853  0.5793  0.3792  4.4225  1.5741       30369.4977
2026       29428.7099  0.6426  0.4237  2.8062  1.1410       27607.0017
2027       44811.8606  0.4715  0.3870  0.7345  1.5613       28255.0211
2028       43099.0478  0.6452  0.5129  0.7596  1.4196       30064.0579
2029       14803.8835  1.2720  0.6034  0.1261  0.5242       25179.8502
2030       24446.2887  0.4486  0.5469  0.7841  0.8683       29538.3965
2031       35652.3936  0.2418  0.3179  0.9350  1.2073       29656.4969
2032       43710.1239  0.4022  0.4292  2.7643  1.4070       33932.3814
2033       37215.4860  0.3920  0.4156  1.2559  1.2635       33372.2060
2034       47923.9680  0.3218  0.3058  1.8109  1.6358       34691.4448
2035       39398.1079  0.2790  0.2236  1.8404  1.2938       33453.9463
2036       40374.9031  0.2093  0.2570  1.3200  1.3597       33531.3840
2037       40024.5033  0.2103  0.2648  1.2893  1.3349       33135.1022
2038       66670.4811  0.1814  0.2530  1.1742  2.2041       34780.5758
2039       56983.2772  0.2004  0.2484  2.0195  1.8680       31359.2580
2040       80965.3888  0.1671  0.2218  1.5465  2.4778       36009.9743
2041       63023.1130  0.1988  0.2627  2.5319  1.9222       37060.1751
2042       74389.2268  0.2308  0.2619  1.2235  2.0768       39859.4659
2043       69146.1899  0.2643  0.2866  1.8595  1.9302       39683.9508
2044       43048.0597  0.3799  0.2456  0.5734  1.4089       34301.5245
2045       47171.6107  0.3690  0.2326  2.6004  1.9036       38346.7143
