Year Ft Rg C
2019  3  1  3304.8524
2020  3  1  3791.9127
2021  3  1  4086.0061
2022  3  1  5460.2009
2023  3  1  5501.2763
2024  3  1  3452.7607
2025  3  1  3564.7104
2026  3  1  6526.8950
2027  3  1  5844.2030
2028  3  1 10142.0248
2029  3  1  6974.3330
2030  3  1  3567.3495
2031  3  1  4133.4642
2032  3  1  5191.3407
2033  3  1  6331.0161
2034  3  1  5738.8375
2035  3  1  5112.2614
2036  3  1  5013.5753
2037  3  1  5042.1155
2038  3  1  7796.3444
2039  3  1  5901.3965
2040  3  1  5709.0822
2041  3  1  5964.3935
2042  3  1  5990.0997
2043  3  1  6196.3608
2044  3  1  5505.5188
2045  3  1  5042.4561
