pseudo ref pts
2019       18443.3647  0.5573  0.5429  0.6653  0.6340       29222.0176
2020       28255.3282  0.3398  0.5016  0.9421  0.9503       32928.1961
2021       31925.7720  0.3042  0.4843  0.5590  1.1175       31701.0389
2022       42139.1894  0.4369  0.4616  0.6835  1.5551       32929.1042
2023       34252.7716  0.5282  0.4177  0.9608  1.4425       31032.2811
2024       17816.6460  1.3266  0.5995  2.9264  0.8706       28724.3261
2025       35205.4825  0.6239  0.3792  4.4223  1.5506       30369.3762
2026       28795.6292  0.7060  0.4237  2.8059  1.1271       27658.3741
2027       43411.3532  0.4896  0.3870  0.7345  1.5509       28291.6643
2028       41910.3951  0.6675  0.5129  0.7596  1.4142       30098.6028
2029       14380.2698  1.2705  0.6034  0.1261  0.5228       25176.5761
2030       23941.9405  0.4023  0.5428  0.7841  0.8714       29520.6128
2031       35821.1285  0.2109  0.3179  0.9350  1.2217       29572.9579
2032       44806.6256  0.3674  0.4292  2.7644  1.4335       33846.6361
2033       38691.0929  0.3939  0.4156  1.2560  1.2892       33421.0828
2034       49155.4563  0.3431  0.3058  1.8111  1.6478       34741.4168
2035       39348.7702  0.2999  0.2253  1.8405  1.2822       33325.6248
2036       39602.0247  0.2164  0.2570  1.3199  1.3335       33539.6848
2037       39212.4917  0.2032  0.2628  1.2891  1.3150       33198.1817
2038       66172.8496  0.1907  0.2530  1.1740  2.1998       34864.6821
2039       56141.1843  0.2005  0.2484  2.0194  1.8709       31314.8845
2040       80186.1696  0.1650  0.2218  1.5465  2.4870       35978.0660
2041       62835.0939  0.2065  0.2627  2.5320  1.9250       37070.4345
2042       73633.9514  0.2284  0.2619  1.2235  2.0802       39843.7119
2043       68853.2590  0.2619  0.2866  1.8595  1.9336       39681.3051
2044       43042.1733  0.3975  0.2456  0.5734  1.4099       34359.2585
2045       46401.5366  0.3795  0.2326  2.6004  1.9011       38347.6108
