pseudo ref pts
2019       18443.3647  0.5580  0.5429  0.6653  0.6340       14610.6068
2020       27341.3838  0.4334  0.5054  0.9421  0.9196       16448.1097
2021       27045.2539  0.4048  0.4843  0.5589  1.0295       15864.2137
2022       31049.5387  0.5194  0.4582  0.6833  1.4070       16474.4091
2023       22073.5410  0.9375  0.4177  0.9594  1.2597       15507.6014
2024        8209.3340     NaN  0.6086  2.9163  0.7147       14391.6719
2025       12700.1598     NaN  0.3879  4.4064  1.2214       15214.7050
2026        9376.8486  0.3943  0.4108  2.7957  0.9147       13826.7587
2027       18211.7712  0.2767  0.3782  0.7331  1.5295       14147.3666
2028       20573.5814  0.4420  0.5013  0.7590  1.5753       15101.3741
2029        7895.7138  0.8116  0.5944  0.1264  0.6267       12593.3908
2030       14681.8803  0.3484  0.5387  0.7869  0.9919       14738.1316
2031       21433.8039  0.1639  0.3131  0.9378  1.2989       14810.2366
2032       26168.1122  0.2691  0.4195  2.7659  1.4551       16951.8195
2033       22891.2747  0.3019  0.4093  1.2563  1.2727       16672.1669
2034       28963.9328  0.2631  0.3011  1.8112  1.6380       17380.0072
2035       23096.0448  0.2374  0.2219  1.8404  1.2842       16645.4073
2036       22901.5973  0.1548  0.2512  1.3198  1.3233       16744.3816
2037       22791.1672  0.1360  0.2569  1.2890  1.3092       16553.2249
2038       39034.2562  0.1259  0.2473  1.1741  2.2040       17409.7447
2039       33868.3666  0.1328  0.2428  2.0198  1.8973       15659.9774
2040       48969.4431  0.1129  0.2168  1.5469  2.5282       18015.2662
2041       38605.7516  0.1437  0.2587  2.5328  1.9514       18508.3700
2042       45460.8811  0.1609  0.2580  1.2238  2.0964       19866.5531
2043       43123.4005  0.1931  0.2823  1.8597  1.9497       19817.2768
2044       27297.1823  0.3064  0.2419  0.5734  1.4247       17167.4773
2045       29947.2497  0.3055  0.2290  2.5992  1.9292       19202.2123
