Year Ft Rg C
2019  3  1  3304.8524
2020  3  1  2011.5730
2021  3  1  2616.0216
2022  3  1  3760.0647
2023  3  1  5658.5790
2024  3  1  6727.3575
2025  3  1  7032.5314
2026  3  1 10215.1688
2027  3  1 11495.9993
2028  3  1 18580.6217
2029  3  1 14082.7429
2030  3  1 10479.8416
2031  3  1 11576.1464
2032  3  1 11202.1352
2033  3  1 12748.9730
2034  3  1 11659.2919
2035  3  1  9336.8242
2036  3  1  6626.4910
2037  3  1  7416.9146
2038  3  1 10772.9809
2039  3  1  8693.4477
2040  3  1 12219.0663
2041  3  1 11261.5274
2042  3  1 11845.5443
2043  3  1 11886.5131
2044  3  1 10642.6720
2045  3  1 10443.2119
