pseudo ref pts
2019       18443.3647  0.5544  0.5429  0.6653  0.6340       87666.0529
2020       31911.0055  0.2050  0.4827  0.9421  1.0733       98976.4863
2021       47883.9704  0.1594  0.4662  0.5590  1.3737       95072.8685
2022       79262.4477  0.2060  0.4478  0.6837  1.9240       98942.4770
2023       85702.2105  0.2131  0.4083  0.9622  1.8793       93424.6067
2024       59791.3983  0.7958  0.5949  2.9326  1.1362       86022.7586
2025      124771.6898  0.3444  0.3734  4.4310  1.8835       91314.0660
2026      103668.2242  0.5093  0.4140  2.8077  1.2537       83042.6542
2027      153740.8258  0.3992  0.3812  0.7341  1.5803       84678.6986
2028      144814.1572  0.5352  0.5013  0.7590  1.4037       90563.5770
2029       50432.2781  1.0665  0.5944  0.1260  0.5174       75518.3956
2030       85075.2979  0.3988  0.5387  0.7840  0.8706       88400.2349
2031      121189.7411  0.2127  0.3131  0.9350  1.2099       88992.6305
2032      144881.9576  0.3247  0.4228  2.7651  1.3911      101614.0339
2033      124798.6239  0.3418  0.4093  1.2559  1.2469      100155.0013
2034      158951.7665  0.2915  0.3011  1.8108  1.6214      104384.9710
2035      128268.8990  0.2479  0.2219  1.8403  1.2857       99883.0445
2036      130025.6139  0.1553  0.2493  1.3200  1.3415      100652.1518
2037      131825.7387  0.1457  0.2569  1.2892  1.3324       99380.4100
2038      226675.8905  0.1301  0.2473  1.1740  2.2367      104286.2411
2039      197959.9525  0.1398  0.2428  2.0191  1.9158       93788.6674
2040      286691.2237  0.1345  0.2185  1.5463  2.5385      108089.9657
2041      220533.9099  0.1621  0.2587  2.5317  1.9412      111176.8333
2042      257486.7948  0.1852  0.2580  1.2234  2.0749      119528.0406
2043      240585.3148  0.2134  0.2823  1.8595  1.9184      119180.0370
2044      151425.5925  0.3263  0.2419  0.5735  1.4108      103270.2844
2045      166342.4315  0.3111  0.2290  2.6023  1.9157      115432.4818
