Year Ft Rg C
2019  3  1  3304.8524
2020  3  1  2519.8366
2021  3  1  3136.9930
2022  3  1  3019.7689
2023  3  1  3453.9879
2024  3  1  2215.2933
2025  3  1  1998.9700
2026  3  1  1728.4827
2027  3  1  2719.3169
2028  3  1  6055.8402
2029  3  1  4626.1216
2030  3  1  3057.2293
2031  3  1  3886.2852
2032  3  1  3963.0299
2033  3  1  4455.7735
2034  3  1  3612.7189
2035  3  1  2919.5615
2036  3  1  2289.6709
2037  3  1  2440.5226
2038  3  1  3342.8988
2039  3  1  3057.8181
2040  3  1  3277.5699
2041  3  1  2850.0461
2042  3  1  3052.1300
2043  3  1  3321.1589
2044  3  1  2773.5990
2045  3  1  2302.8565
