pseudo ref pts
2019       18443.3647  0.5573  0.5429  0.6653  0.6340       29222.0176
2020       28255.3282  0.2843  0.4941  0.9421  0.9503       32925.7073
2021       32811.8465  0.2667  0.4771  0.5590  1.1331       31739.4726
2022       44023.9084  0.3356  0.4513  0.6835  1.5780       33058.4222
2023       38421.8897  0.4044  0.4114  0.9611  1.4952       31085.9315
2024       20984.0848  1.0377  0.5949  2.9278  0.9093       28679.1414
2025       39770.1444  0.4923  0.3734  4.4244  1.5770       30475.5801
2026       31594.5447  0.4393  0.4108  2.8063  1.1120       27651.0781
2027       49513.2749  0.3515  0.3782  0.7343  1.5339       28252.9272
2028       48364.8790  0.5161  0.5013  0.7594  1.4234       30188.6862
2029       17041.4995  1.0105  0.5944  0.1260  0.5365       25194.5069
2030       29147.8594  0.3534  0.5387  0.7842  0.8898       29484.5491
2031       41983.9513  0.2021  0.3155  0.9352  1.2246       29565.3471
2032       49966.4976  0.3270  0.4228  2.7647  1.3999       33931.5829
2033       42547.4482  0.3453  0.4093  1.2558  1.2452       33450.8769
2034       53599.3429  0.2816  0.3011  1.8107  1.6070       34802.3124
2035       43344.8041  0.2368  0.2219  1.8401  1.2771       33348.5448
2036       44132.6168  0.1506  0.2493  1.3199  1.3397       33651.0478
2037       44749.1369  0.1426  0.2569  1.2892  1.3354       33135.8346
2038       76815.9756  0.1236  0.2473  1.1741  2.2387       34788.1078
2039       67289.4932  0.1378  0.2428  2.0196  1.9167       31342.8100
2040       97094.7724  0.1235  0.2185  1.5466  2.5365       35958.3686
2041       75548.6294  0.1473  0.2587  2.5322  1.9480       36923.4185
2042       89166.5419  0.1664  0.2580  1.2236  2.0874       39735.9367
2043       84458.9840  0.1978  0.2823  1.8595  1.9415       39627.9224
2044       53464.1941  0.2998  0.2419  0.5735  1.4251       34348.7265
2045       59404.4011  0.2716  0.2290  2.6012  1.9355       38359.7610
