Year Ft Rg C
2019  3  1  3304.8524
2020  3  1  2140.5398
2021  3  1  2895.9176
2022  3  1  4446.9232
2023  3  1  6398.0964
2024  3  1  7761.6092
2025  3  1  9076.8196
2026  3  1 10935.0659
2027  3  1 14507.9552
2028  3  1 19359.7295
2029  3  1 15877.3628
2030  3  1 11143.3484
2031  3  1 11813.2480
2032  3  1 10115.1352
2033  3  1 12639.9485
2034  3  1 11330.6137
2035  3  1  9908.8483
2036  3  1  7917.7943
2037  3  1  7585.2585
2038  3  1  9622.1288
2039  3  1  7475.8320
2040  3  1  9357.1299
2041  3  1  8440.4060
2042  3  1 10241.9731
2043  3  1 11572.3767
2044  3  1 14572.8862
2045  3  1 12876.5623
