pseudo ref pts
2019       18443.3647  0.5544  0.5429  0.6653  0.6340       87666.0529
2020       31911.0055  0.2110  0.4827  0.9421  1.0733       99080.5871
2021       47772.8869  0.1671  0.4662  0.5590  1.3720       95304.7739
2022       78845.0972  0.2153  0.4513  0.6837  1.9205       98833.0904
2023       84765.6201  0.2185  0.4114  0.9622  1.8727       93326.9112
2024       59073.3981  0.8247  0.5949  2.9326  1.1326       86328.5668
2025      123274.0759  0.3684  0.3763  4.4309  1.8797       91355.2130
2026      102353.6305  0.5250  0.4140  2.8077  1.2530       83027.9544
2027      151847.1363  0.4478  0.3812  0.7341  1.5801       84839.9053
2028      140494.8673  0.5570  0.5013  0.7590  1.3958       90607.5520
2029       48749.5090  1.1433  0.5944  0.1260  0.5137       75653.9677
2030       81161.8330  0.4183  0.5387  0.7839  0.8603       88576.9448
2031      116174.5600  0.2163  0.3131  0.9350  1.2058       89122.0615
2032      140471.7870  0.3139  0.4195  2.7651  1.3939      101979.1159
2033      123079.3158  0.3362  0.4093  1.2559  1.2606      100143.0168
2034      158318.9959  0.2883  0.3011  1.8108  1.6421      104301.3260
2035      128447.4105  0.2489  0.2219  1.8403  1.2995       99976.3385
2036      130104.0557  0.1638  0.2493  1.3200  1.3478      100963.5210
2037      130837.3096  0.1484  0.2569  1.2892  1.3306       99390.5571
2038      224786.4477  0.1255  0.2454  1.1740  2.2294      104711.0897
2039      197920.8482  0.1306  0.2428  2.0191  1.9152       93696.3885
2040      289716.7553  0.1221  0.2185  1.5463  2.5536      107727.6672
2041      226609.4438  0.1446  0.2587  2.5317  1.9642      110765.1528
2042      268603.8477  0.1700  0.2580  1.2234  2.1043      119420.8283
2043      253025.6815  0.2039  0.2823  1.8595  1.9444      119173.4158
2044      159026.0844  0.3489  0.2438  0.5735  1.4215      103198.4954
2045      167878.8783  0.3412  0.2308  2.6023  1.8980      115138.3824
