Year Ft Rg C
2019  3  1  3304.8524
2020  3  1  3014.7462
2021  3  1  2974.7925
2022  3  1  4043.8835
2023  3  1  4285.0544
2024  3  1  1770.2355
2025  3  1  2118.2651
2026  3  1  3093.0550
2027  3  1  3380.5326
2028  3  1  8528.7072
2029  3  1  6099.5165
2030  3  1  2459.3403
2031  3  1  2992.0491
2032  3  1  4722.1190
2033  3  1  5633.3872
2034  3  1  4887.6351
2035  3  1  4220.1248
2036  3  1  2519.6536
2037  3  1  2904.9733
2038  3  1  5507.2482
2039  3  1  4904.2800
2040  3  1  5183.1176
2041  3  1  5144.2494
2042  3  1  4584.5426
2043  3  1  5406.1006
2044  3  1  4488.3921
2045  3  1  4095.1336
