pseudo ref pts
2019       18443.3647  0.5573  0.5429  0.6653  0.6340       29222.0176
2020       28255.3282  0.3043  0.4978  0.9421  0.9503       32910.4332
2021       32485.6881  0.2576  0.4771  0.5590  1.1273       31753.7283
2022       43887.9733  0.3664  0.4547  0.6835  1.5761       33081.5099
2023       37389.1040  0.4366  0.4146  0.9610  1.4830       31057.2534
2024       20107.7964  1.0121  0.5903  2.9275  0.9004       28785.0301
2025       39222.7392  0.4969  0.3763  4.4239  1.5777       30336.1992
2026       31384.8439  0.4989  0.4172  2.8062  1.1220       27580.7270
2027       48460.2118  0.3689  0.3812  0.7344  1.5446       28282.1530
2028       47355.2857  0.5741  0.5090  0.7594  1.4200       30122.5408
2029       16358.8537  1.1200  0.5989  0.1260  0.5306       25221.1265
2030       27404.1582  0.3295  0.5346  0.7841  0.8790       29536.2323
2031       40545.1440  0.1765  0.3131  0.9351  1.2214       29642.1381
2032       49750.5089  0.3362  0.4260  2.7645  1.4203       33933.0440
2033       42284.9327  0.3657  0.4125  1.2559  1.2695       33469.4923
2034       52818.5210  0.3134  0.3034  1.8109  1.6193       34813.7852
2035       41898.7750  0.2758  0.2236  1.8402  1.2644       33361.5305
2036       41802.2742  0.1549  0.2512  1.3198  1.3182       33617.0566
2037       42930.6307  0.1494  0.2588  1.2891  1.3243       33141.8351
2038       74216.3035  0.1468  0.2511  1.1741  2.2393       34792.9603
2039       63892.1803  0.1671  0.2466  2.0195  1.9187       31335.9741
2040       90652.4316  0.1487  0.2218  1.5466  2.5141       35895.1958
2041       69461.4128  0.1853  0.2627  2.5321  1.9160       36954.9808
2042       80332.2410  0.1968  0.2599  1.2235  2.0512       39836.2786
2043       75571.3097  0.2392  0.2866  1.8594  1.9139       39564.9063
2044       47002.9750  0.3548  0.2438  0.5734  1.4039       34426.3208
2045       51206.5693  0.3370  0.2308  2.6006  1.9079       38412.6689
