Year Ft Rg C
2019  3  1  3304.8524
2020  3  1  2713.6779
2021  3  1  3866.5467
2022  3  1  5399.9814
2023  3  1  7180.5465
2024  3  1  6446.2706
2025  3  1  7381.0947
2026  3  1 10340.8830
2027  3  1 11998.4192
2028  3  1 18438.9289
2029  3  1 13812.3170
2030  3  1 10293.0737
2031  3  1 11511.1269
2032  3  1 11293.4804
2033  3  1 12066.2001
2034  3  1 11268.9332
2035  3  1 10173.3446
2036  3  1  9892.4857
2037  3  1 10234.0728
2038  3  1 14640.8426
2039  3  1 11009.7164
2040  3  1 12355.3406
2041  3  1 10402.1791
2042  3  1 11591.0238
2043  3  1 13358.4333
2044  3  1 11147.3661
2045  3  1 10267.7329
