pseudo ref pts
2019       18443.3647  0.5544  0.5429  0.6653  0.6340       87666.0529
2020       31911.0055  0.2340  0.4865  0.9421  1.0733       99046.1790
2021       47366.7580  0.1975  0.4698  0.5590  1.3656       95355.2432
2022       77261.5674  0.2363  0.4513  0.6837  1.9072       99181.8986
2023       82158.2022  0.2393  0.4114  0.9622  1.8535       93371.8284
2024       57025.0407  0.7920  0.5903  2.9325  1.1226       86439.7103
2025      122088.7893  0.3426  0.3734  4.4308  1.8895       91368.5512
2026      102626.4094  0.5089  0.4140  2.8077  1.2682       83048.0136
2027      152966.4853  0.4015  0.3812  0.7342  1.6034       84748.9571
2028      144306.1786  0.5337  0.5013  0.7590  1.4126       90554.5671
2029       50356.2316  1.0532  0.5944  0.1260  0.5189       75520.3588
2030       85290.4179  0.3908  0.5387  0.7840  0.8727       88427.4800
2031      121813.1210  0.2104  0.3131  0.9350  1.2133       88993.6069
2032      145667.1295  0.3277  0.4228  2.7652  1.3942      101560.0932
2033      125089.8283  0.3317  0.4093  1.2559  1.2469      100156.7115
2034      160047.8542  0.2853  0.3011  1.8108  1.6223      104374.3990
2035      129480.5704  0.2523  0.2219  1.8403  1.2875      100005.4316
2036      130327.9749  0.1779  0.2512  1.3200  1.3413      100827.4007
2037      129194.6113  0.1682  0.2588  1.2892  1.3200       99400.6243
2038      218213.1006  0.1493  0.2492  1.1740  2.2014      104290.6008
2039      188009.5921  0.1566  0.2447  2.0191  1.8816       93710.5535
2040      271060.0775  0.1403  0.2185  1.5462  2.5082      108056.0814
2041      210615.4170  0.1616  0.2587  2.5317  1.9357      111028.4833
2042      249875.2936  0.1860  0.2580  1.2234  2.0894      119410.6751
2043      235871.8711  0.2226  0.2823  1.8595  1.9419      119234.5164
2044      147907.4371  0.3337  0.2419  0.5735  1.4219      103329.2595
2045      162332.8761  0.3146  0.2290  2.6024  1.9198      115382.5221
