Year Ft Rg C
2019  3  1  3304.8524
2020  3  1  4959.9761
2021  3  1  6669.0694
2022  3  1  8421.6568
2023  3  1 11125.3894
2024  3  1  9880.2927
2025  3  1 13635.4625
2026  3  1 16679.6701
2027  3  1 17543.3047
2028  3  1 33619.7529
2029  3  1 23991.7537
2030  3  1 13071.1831
2031  3  1 14945.7870
2032  3  1 18355.5870
2033  3  1 19435.7137
2034  3  1 16186.1974
2035  3  1 15071.4340
2036  3  1 14679.3682
2037  3  1 15210.5721
2038  3  1 23387.8215
2039  3  1 18861.8327
2040  3  1 18367.7934
2041  3  1 17397.1534
2042  3  1 18765.2862
2043  3  1 21572.1374
2044  3  1 15481.6932
2045  3  1 13536.7126
