pseudo ref pts
2019       18443.3647  0.5544  0.5429  0.6653  0.6340       87666.0529
2020       31911.0055  0.3305  0.4978  0.9421  1.0733       99009.5022
2021       45747.8280  0.2822  0.4807  0.5590  1.3404       95533.3593
2022       72713.7311  0.2964  0.4616  0.6837  1.8676       98943.5228
2023       75256.7448  0.3041  0.4209  0.9621  1.7994       93119.3364
2024       51531.7112  0.9606  0.5995  2.9321  1.0981       86177.8833
2025      112748.1143  0.4538  0.3792  4.4304  1.8826       91257.2719
2026       94529.2640  0.6226  0.4204  2.8078  1.2718       83011.5362
2027      140698.3481  0.4833  0.3870  0.7342  1.6135       84628.1599
2028      132129.1258  0.7188  0.5129  0.7591  1.4087       90190.7609
2029       43624.7214  1.4513  0.6034  0.1260  0.5098       75542.2131
2030       69025.3371  0.4811  0.5469  0.7839  0.8390       88384.2723
2031      101120.7931  0.2588  0.3179  0.9349  1.1792       88846.6374
2032      124996.3591  0.4329  0.4292  2.7649  1.3969      101706.6296
2033      106296.1025  0.4291  0.4156  1.2559  1.2686      100235.1491
2034      136630.2904  0.3461  0.3058  1.8108  1.6391      104064.2219
2035      112803.4314  0.2980  0.2253  1.8403  1.2944       99874.0121
2036      116172.8584  0.2176  0.2551  1.3200  1.3631      100920.8586
2037      115963.0176  0.2026  0.2628  1.2892  1.3421       99638.6759
2038      197024.5411  0.1982  0.2511  1.1740  2.2275      104763.2673
2039      166359.1843  0.2141  0.2484  2.0191  1.8774       93892.9864
2040      235264.9846  0.1777  0.2218  1.5462  2.4807      107888.3999
2041      182609.0401  0.2136  0.2627  2.5316  1.9095      110969.7041
2042      214502.7757  0.2431  0.2619  1.2234  2.0682      119414.4916
2043      199212.9340  0.2966  0.2866  1.8595  1.9247      119124.3960
2044      121382.4841  0.4084  0.2456  0.5735  1.3967      102953.5081
2045      132133.8891  0.3811  0.2308  2.6021  1.8854      115373.8695
