Year Ft Rg C
2019  3  1  3304.8524
2020  3  1  3789.8337
2021  3  1  3772.1254
2022  3  1  3737.8111
2023  3  1  4932.7693
2024  3  1  4248.6541
2025  3  1   784.3990
2026  3  1  1122.5452
2027  3  1  1478.7684
2028  3  1  3842.0775
2029  3  1  3111.2122
2030  3  1  2639.3348
2031  3  1  3119.8467
2032  3  1  2265.1320
2033  3  1  2026.9466
2034  3  1  2384.7752
2035  3  1  2047.0593
2036  3  1  1298.9403
2037  3  1  1280.3524
2038  3  1  2551.8233
2039  3  1  2546.1960
2040  3  1  2211.4514
2041  3  1  2251.4172
2042  3  1  2452.3680
2043  3  1  2917.6121
2044  3  1  2693.6258
2045  3  1  2994.0723
