pseudo ref pts
2019       18443.3647  0.5580  0.5429  0.6653  0.6340       14610.6068
2020       27341.3838  0.3958  0.5016  0.9421  0.9196       16475.7527
2021       27582.7116  0.3771  0.4843  0.5589  1.0393       15842.5491
2022       32108.1288  0.4852  0.4547  0.6833  1.4223       16535.6266
2023       23330.5193  0.8327  0.4146  0.9596  1.2829       15565.2263
2024        9026.5558  3.9816  0.6086  2.9180  0.7319       14365.4825
2025       13841.9382  1.1742  0.3763  4.4090  1.2381       15164.9856
2026       11691.6390  0.4305  0.4140  2.7983  0.9759       13833.7589
2027       20757.3043  0.3033  0.3812  0.7338  1.5407       14142.8180
2028       22199.1616  0.5227  0.5090  0.7595  1.5613       15081.7289
2029        8046.3541  1.0367  0.6034  0.1263  0.5849       12568.9092
2030       13943.8713  0.4743  0.5469  0.7857  0.9341       14771.2733
2031       19453.2855  0.2609  0.3203  0.9363  1.2268       14855.5809
2032       22774.9951  0.3511  0.4260  2.7641  1.3817       16983.3456
2033       19644.9807  0.3325  0.4125  1.2556  1.2297       16668.5940
2034       25634.8922  0.3013  0.3058  1.8105  1.6233       17328.2140
2035       20820.1604  0.2565  0.2236  1.8400  1.2997       16693.9047
2036       21219.8282  0.1544  0.2512  1.3199  1.3576       16807.2883
2037       21733.1667  0.1379  0.2588  1.2894  1.3423       16561.6577
2038       37864.2399  0.1384  0.2511  1.1745  2.2584       17390.9997
2039       32726.2927  0.1640  0.2484  2.0204  1.9244       15625.6442
2040       46224.2708  0.1377  0.2201  1.5472  2.5205       18013.6390
2041       35734.8438  0.1709  0.2627  2.5328  1.9213       18459.8448
2042       41649.9485  0.1962  0.2619  1.2237  2.0593       19849.8911
2043       38746.1537  0.2427  0.2866  1.8593  1.9179       19817.0641
2044       23795.2340  0.3873  0.2456  0.5733  1.3970       17147.9310
2045       24969.3614  0.4291  0.2326  2.5976  1.8711       19180.3494
