Year Ft Rg C
2019  3  1  3304.8524
2020  3  1  4567.2515
2021  3  1  4586.4781
2022  3  1  4544.7557
2023  3  1  5997.6899
2024  3  1  5165.8832
2025  3  1  5657.1207
2026  3  1   437.4762
2027  3  1   809.1227
2028  3  1  1597.2301
2029  3  1  1562.1646
2030  3  1  1373.1843
2031  3  1  1616.3944
2032  3  1   994.0562
2033  3  1  1135.6849
2034  3  1  2170.8437
2035  3  1  1779.6791
2036  3  1  1117.5088
2037  3  1  1197.6638
2038  3  1  1758.3711
2039  3  1  1520.4659
2040  3  1  1112.0911
2041  3  1  1311.9957
2042  3  1  1560.5980
2043  3  1  1741.1708
2044  3  1  1607.5004
2045  3  1  1786.8007
