pseudo ref pts
2019       18443.3647  0.5580  0.5429  0.6653  0.6340       14610.6068
2020       27341.3838  0.4379  0.5054  0.9421  0.9196       16452.6220
2021       26981.9257  0.4275  0.4843  0.5589  1.0284       15910.5363
2022       30544.6274  0.5523  0.4582  0.6833  1.3999       16514.6471
2023       21185.3128  1.0549  0.4177  0.9592  1.2439       15545.4781
2024        7507.4790     NaN  0.6132  2.9147  0.6957       14364.5707
2025       11801.7518     NaN  0.3909  4.4037  1.2055       15186.0539
2026        8740.9629  0.3361  0.4076  2.7942  0.9116       13833.9023
2027       17686.5493  0.2272  0.3753  0.7331  1.5643       14160.3153
2028       20628.8629  0.3800  0.5013  0.7591  1.6188       15030.7529
2029        8152.9350  0.7241  0.5898  0.1265  0.6489       12626.6565
2030       15467.5974  0.3113  0.5387  0.7874  1.0198       14694.2999
2031       22692.8206  0.1664  0.3131  0.9384  1.3224       14815.5509
2032       27222.4827  0.2541  0.4195  2.7664  1.4578       16900.1089
2033       23772.8568  0.2687  0.4062  1.2563  1.2664       16660.7509
2034       30322.8017  0.2824  0.3034  1.8112  1.6312       17357.1922
2035       23388.1297  0.2544  0.2219  1.8403  1.2729       16706.1409
2036       22684.8689  0.1522  0.2493  1.3197  1.3027       16830.5757
2037       22669.8771  0.1425  0.2569  1.2888  1.2879       16602.0935
2038       38616.1366  0.1253  0.2473  1.1739  2.1876       17416.3500
2039       33634.8891  0.1369  0.2428  2.0195  1.8989       15687.1859
2040       48520.4523  0.1113  0.2168  1.5469  2.5249       18009.0043
2041       38469.3460  0.1376  0.2587  2.5328  1.9560       18483.4513
2042       45736.6750  0.1649  0.2580  1.2238  2.1053       19875.5742
2043       43113.1944  0.1977  0.2823  1.8597  1.9559       19832.8562
2044       27131.8835  0.3153  0.2419  0.5734  1.4239       17179.0584
2045       29510.6736  0.3195  0.2290  2.5991  1.9160       19215.1661
