Year Ft Rg C
2019  3  1  3304.8524
2020  3  1  4959.9761
2021  3  1  6669.0694
2022  3  1  4586.1268
2023  3  1  7035.3346
2024  3  1 10396.8576
2025  3  1 12474.6542
2026  3  1  8881.3486
2027  3  1 11427.4561
2028  3  1 18818.9896
2029  3  1 13546.9498
2030  3  1 10319.8050
2031  3  1 11428.4238
2032  3  1 11531.7284
2033  3  1 12907.3478
2034  3  1 11067.3765
2035  3  1  9875.6809
2036  3  1  6721.4531
2037  3  1  7575.3880
2038  3  1 11316.7364
2039  3  1  8892.1442
2040  3  1  9629.6749
2041  3  1  8069.1224
2042  3  1  8926.5101
2043  3  1  9446.8948
2044  3  1  8922.8345
2045  3  1  8077.6415
