pseudo ref pts
2019       18443.3647  0.5544  0.5429  0.6653  0.6340       87666.0529
2020       31911.0055  0.3305  0.4978  0.9421  1.0733       99009.5022
2021       45747.8280  0.2822  0.4807  0.5590  1.3404       95533.3593
2022       72713.7311  0.2231  0.4513  0.6837  1.8676       98974.9411
2023       79169.3169  0.2370  0.4114  0.9621  1.8259       93367.8625
2024       55802.6771  0.9309  0.5995  2.9324  1.1262       86223.7972
2025      117524.8300  0.4224  0.3792  4.4308  1.9003       91190.4498
2026       97684.2078  0.4918  0.4140  2.8078  1.2618       82878.5333
2027      149275.5547  0.3938  0.3812  0.7342  1.6004       84642.8720
2028      142713.2394  0.5382  0.5013  0.7591  1.4243       90558.9498
2029       49905.1986  1.0357  0.5944  0.1260  0.5264       75538.2563
2030       85146.0573  0.3906  0.5387  0.7840  0.8797       88416.7979
2031      121796.1164  0.2089  0.3131  0.9350  1.2175       88969.6833
2032      145854.5313  0.3302  0.4228  2.7652  1.3986      101587.5785
2033      125025.5648  0.3462  0.4093  1.2559  1.2475      100128.5272
2034      158678.8318  0.2851  0.3011  1.8108  1.6179      104376.7667
2035      128708.0987  0.2510  0.2219  1.8403  1.2844       99968.9984
2036      129980.6475  0.1555  0.2493  1.3200  1.3405      100707.2509
2037      131765.1350  0.1467  0.2569  1.2892  1.3329       99429.2580
2038      226393.0160  0.1334  0.2473  1.1740  2.2334      104303.9346
2039      196986.9141  0.1417  0.2428  2.0191  1.9129       93808.0504
2040      284973.8012  0.1277  0.2185  1.5463  2.5338      107579.2005
2041      221979.8931  0.1460  0.2567  2.5317  1.9460      111277.2368
2042      263986.2455  0.1674  0.2580  1.2234  2.0952      119009.8619
2043      250973.6597  0.1946  0.2823  1.8595  1.9495      118751.1760
2044      160016.3580  0.3078  0.2419  0.5735  1.4340      102996.8455
2045      176654.1282  0.2863  0.2290  2.6025  1.9391      115078.5001
