Year Ft Rg C
2019  3  1  3304.8524
2020  3  1  4815.2363
2021  3  1  5347.3688
2022  3  1  3989.8671
2023  3  1  4042.3980
2024  3  1  3969.0362
2025  3  1  3987.8408
2026  3  1  6293.6010
2027  3  1  6191.4124
2028  3  1 12335.8218
2029  3  1  7834.5522
2030  3  1  4715.3615
2031  3  1  5338.3383
2032  3  1  5600.9725
2033  3  1  6340.5084
2034  3  1  5648.1126
2035  3  1  5331.0817
2036  3  1  5313.2720
2037  3  1  5591.2748
2038  3  1  8972.8344
2039  3  1  7438.0441
2040  3  1  9340.5051
2041  3  1  8589.8600
2042  3  1  5891.2474
2043  3  1  7220.6681
2044  3  1  8337.4505
2045  3  1  6793.4193
