pseudo ref pts
2019       18443.3647  0.5573  0.5429  0.6653  0.6340       29222.0176
2020       28255.3282  0.3864  0.5054  0.9421  0.9503       32986.1879
2021       31212.6200  0.3610  0.4879  0.5590  1.1049       31804.6957
2022       40100.0946  0.3861  0.4582  0.6834  1.5299       32934.7425
2023       34220.5591  0.4512  0.4146  0.9608  1.4369       31055.3238
2024       18751.8694  1.3026  0.5995  2.9267  0.8899       28783.9101
2025       36114.8753  0.6239  0.3792  4.4231  1.5790       30438.8730
2026       29167.6467  0.6834  0.4237  2.8063  1.1263       27661.6281
2027       44042.8268  0.5061  0.3870  0.7344  1.5318       28306.8485
2028       42005.7114  0.7384  0.5168  0.7595  1.4032       30117.7723
2029       13992.1653  1.3757  0.6080  0.1260  0.5165       25142.9645
2030       22810.6270  0.4939  0.5469  0.7840  0.8540       29543.0681
2031       33449.0257  0.2614  0.3203  0.9348  1.1935       29572.0050
2032       41455.2236  0.4013  0.4292  2.7640  1.4102       33923.0479
2033       35975.4279  0.4100  0.4156  1.2559  1.2781       33442.9985
2034       46530.5499  0.3443  0.3058  1.8110  1.6544       34748.6612
2035       38139.7421  0.3041  0.2253  1.8405  1.3024       33334.7752
2036       38850.3803  0.2247  0.2570  1.3200  1.3575       33596.1606
2037       38494.8845  0.2160  0.2648  1.2893  1.3307       33128.6379
2038       64646.4848  0.2065  0.2549  1.1741  2.2054       34906.6288
2039       54352.3746  0.2292  0.2522  2.0195  1.8628       31278.3964
2040       76387.0662  0.2259  0.2252  1.5464  2.4623       36050.1347
2041       56486.6930  0.2769  0.2667  2.5318  1.8730       37108.1999
2042       64083.8829  0.2424  0.2639  1.2233  2.0081       39768.5841
2043       62163.2395  0.2875  0.2910  1.8592  1.8978       39547.7161
2044       39292.1762  0.5139  0.2494  0.5733  1.4164       34340.8998
2045       39745.8697  0.5074  0.2343  2.5997  1.8992       38417.1537
