Year Ft Rg C
2019  3  1  3304.8524
2020  3  1  5060.0957
2021  3  1  7566.9163
2022  3  1  9744.7023
2023  3  1 12135.0912
2024  3  1  9424.3710
2025  3  1 13037.9974
2026  3  1 20082.2317
2027  3  1 20614.9367
2028  3  1 31816.5749
2029  3  1 23213.8267
2030  3  1 12745.0225
2031  3  1 15045.8239
2032  3  1 18296.8781
2033  3  1 18576.5009
2034  3  1 17471.2306
2035  3  1 16458.8540
2036  3  1 15748.8067
2037  3  1 18775.2239
2038  3  1 20798.1459
2039  3  1 19507.0092
2040  3  1 17720.1023
2041  3  1 18049.9851
2042  3  1 19227.1454
2043  3  1 22116.8847
2044  3  1 17014.8062
2045  3  1 14736.4022
