pseudo ref pts
2019       18443.3647  0.5544  0.5429  0.6653  0.6340       87666.0529
2020       31911.0055  0.3366  0.4978  0.9421  1.0733       99013.7923
2021       45644.4342  0.3155  0.4843  0.5590  1.3388       95230.0594
2022       71544.0319  0.3371  0.4616  0.6837  1.8578       99070.3861
2023       72277.8499  0.3374  0.4209  0.9620  1.7773       93226.8134
2024       49124.6961  0.9463  0.5995  2.9319  1.0819       86176.6645
2025      110751.2510  0.4335  0.3792  4.4301  1.8879       91224.6868
2026       94488.6516  0.6922  0.4237  2.8078  1.2908       82748.8862
2027      137769.5072  0.5475  0.3870  0.7343  1.6307       84757.3719
2028      126755.8978  0.7183  0.5090  0.7591  1.3996       90624.1883
2029       42281.1423  1.4556  0.6034  0.1260  0.5037       75516.9031
2030       67398.7268  0.4790  0.5469  0.7839  0.8368       88317.6098
2031       99664.3937  0.2575  0.3179  0.9349  1.1899       88945.4877
2032      124065.6589  0.4329  0.4292  2.7649  1.4081      101694.3602
2033      105877.8959  0.4159  0.4156  1.2559  1.2772      100170.7631
2034      137335.2895  0.3597  0.3058  1.8109  1.6500      104130.8655
2035      112133.8850  0.3175  0.2253  1.8404  1.2949       99916.7198
2036      113959.0830  0.2342  0.2551  1.3200  1.3559      100939.8528
2037      112710.4490  0.2443  0.2648  1.2892  1.3272       99335.0734
2038      185902.6540  0.1920  0.2511  1.1740  2.1892      104677.0763
2039      161029.4308  0.2236  0.2484  2.0191  1.8687       93975.7704
2040      228423.7894  0.1759  0.2218  1.5462  2.4793      107891.1620
2041      179904.2171  0.2158  0.2627  2.5317  1.9372      111130.7134
2042      212322.7526  0.2476  0.2619  1.2234  2.0837      119447.8841
2043      197138.9961  0.3014  0.2866  1.8595  1.9374      119187.6531
2044      119990.9416  0.4338  0.2456  0.5735  1.3984      103032.6324
2045      128253.2406  0.4125  0.2308  2.6021  1.8742      115473.6206
