Year Ft Rg C
2019  3  1  3304.8524
2020  3  1  4489.7012
2021  3  1  4125.8809
2022  3  1  4088.3485
2023  3  1  5395.3717
2024  3  1  4647.0992
2025  3  1  5089.0041
2026  3  1  1694.8126
2027  3  1  2187.6834
2028  3  1  4752.3680
2029  3  1  3299.4372
2030  3  1  2799.0118
2031  3  1  3308.5940
2032  3  1  2359.3922
2033  3  1  2977.5067
2034  3  1  2794.2308
2035  3  1  2435.1506
2036  3  1  2535.8462
2037  3  1  2425.4342
2038  3  1  3172.1223
2039  3  1  2976.7677
2040  3  1  2671.4450
2041  3  1  3184.5309
2042  3  1  3042.8685
2043  3  1  2969.7089
2044  3  1  2741.7231
2045  3  1  3047.5343
