pseudo ref pts
2019       18443.3647  0.5580  0.5429  0.6653  0.6340       14610.6068
2020       27341.3838  0.4334  0.5054  0.9421  0.9196       16448.1097
2021       27045.2539  0.4048  0.4843  0.5589  1.0295       15864.2137
2022       31049.5387  0.5194  0.4582  0.6833  1.4070       16474.4091
2023       22073.5410  0.9375  0.4177  0.9594  1.2597       15507.6014
2024        8209.3340     NaN  0.6086  2.9163  0.7147       14391.6719
2025       12700.1598     NaN  0.3879  4.4064  1.2214       15214.7050
2026        9376.8486  0.5617  0.4204  2.7957  0.9147       13828.4935
2027       17520.1842  0.3930  0.3870  0.7331  1.5052       14114.6182
2028       19135.1884  0.6145  0.5129  0.7589  1.5352       15084.8580
2029        6949.9689  1.0942  0.6034  0.1264  0.6013       12615.7279
2030       12304.3917  0.5079  0.5509  0.7863  0.9485       14765.3197
2031       17656.0662  0.2736  0.3226  0.9371  1.2483       14849.5933
2032       21303.0178  0.3599  0.4292  2.7645  1.4193       16929.8728
2033       18746.3913  0.3904  0.4156  1.2560  1.2624       16700.3739
2034       24137.3815  0.3310  0.3058  1.8111  1.6436       17397.9785
2035       19648.0135  0.2838  0.2253  1.8405  1.3033       16665.9273
2036       20070.6026  0.2144  0.2570  1.3199  1.3537       16773.0835
2037       19833.4174  0.1929  0.2628  1.2893  1.3278       16614.8177
2038       33655.7238  0.1648  0.2530  1.1743  2.2132       17384.7536
2039       29235.6142  0.1915  0.2484  2.0201  1.8877       15678.8088
2040       41594.4273  0.1552  0.2218  1.5471  2.5079       17984.4416
2041       32579.3564  0.2054  0.2647  2.5328  1.9375       18495.3333
2042       37708.7087  0.2290  0.2619  1.2238  2.0688       19928.0256
2043       34893.8995  0.2575  0.2866  1.8594  1.9189       19840.0140
2044       21785.5180  0.3979  0.2456  0.5733  1.3984       17167.9750
2045       23362.4923  0.4279  0.2326  2.5974  1.8902       19202.7690
