pseudo ref pts
2019       18443.3647  0.5573  0.5429  0.6653  0.6340       29222.0176
2020       28255.3282  0.2819  0.4941  0.9421  0.9503       32930.8556
2021       32848.7246  0.2451  0.4771  0.5590  1.1337       31715.2898
2022       44595.2827  0.3374  0.4547  0.6835  1.5846       32954.3135
2023       38776.4158  0.3902  0.4114  0.9611  1.5003       31091.6132
2024       21314.8438  1.0406  0.5949  2.9279  0.9141       28738.4876
2025       40029.3904  0.5319  0.3763  4.4246  1.5726       30434.1560
2026       31321.7946  0.5249  0.4172  2.8062  1.1040       27616.9517
2027       47939.6305  0.3829  0.3812  0.7343  1.5095       28283.0444
2028       46667.9977  0.4826  0.5013  0.7593  1.4032       30191.3971
2029       16852.2442  0.9588  0.5944  0.1260  0.5350       25180.6013
2030       29363.6876  0.3216  0.5346  0.7842  0.9006       29524.2782
2031       42882.3210  0.1709  0.3131  0.9352  1.2478       29632.6730
2032       51933.9738  0.2944  0.4228  2.7649  1.4232       33863.7775
2033       44741.5523  0.3106  0.4093  1.2560  1.2632       33391.5794
2034       56699.4304  0.2548  0.3011  1.8109  1.6262       34713.3928
2035       45929.3840  0.2377  0.2219  1.8403  1.2853       33409.9949
2036       45712.3018  0.1677  0.2532  1.3199  1.3326       33511.7815
2037       45044.3944  0.1533  0.2588  1.2891  1.3130       33144.2937
2038       76122.8063  0.1338  0.2492  1.1740  2.1893       34744.5761
2039       65891.4518  0.1475  0.2447  2.0193  1.8811       31297.9714
2040       94501.9227  0.1249  0.2185  1.5465  2.5081       35983.7704
2041       74000.1946  0.1528  0.2587  2.5320  1.9402       37081.5489
2042       87306.0408  0.1749  0.2599  1.2235  2.0872       39677.5288
2043       82343.4594  0.1996  0.2823  1.8595  1.9428       39732.8821
2044       52382.8871  0.3149  0.2419  0.5735  1.4252       34434.3453
2045       57659.6921  0.2883  0.2290  2.6011  1.9304       38480.8805
