Year Ft Rg C
2019  3  1  3304.8524
2020  3  1  2664.0727
2021  3  1  3410.8249
2022  3  1  4896.3693
2023  3  1  6792.6753
2024  3  1  5579.7502
2025  3  1  6981.9531
2026  3  1  9088.4483
2027  3  1 10303.8769
2028  3  1 18385.5556
2029  3  1 13950.0074
2030  3  1  9867.8481
2031  3  1 11325.3309
2032  3  1  8461.8053
2033  3  1 10698.3389
2034  3  1  9315.5461
2035  3  1  8143.8487
2036  3  1  7885.5310
2037  3  1  9098.4163
2038  3  1 11761.5346
2039  3  1  9742.1079
2040  3  1  9405.3537
2041  3  1  9447.0888
2042  3  1  9691.0839
2043  3  1  9541.9614
2044  3  1  9072.9678
2045  3  1  8921.8572
