pseudo ref pts
2019       18443.3647  0.5544  0.5429  0.6653  0.6340       87666.0529
2020       31911.0055  0.2275  0.4865  0.9421  1.0733       99147.5116
2021       47495.2425  0.1730  0.4698  0.5590  1.3676       95547.7189
2022       78414.1957  0.2207  0.4513  0.6837  1.9166       99080.3621
2023       84179.5451  0.2206  0.4146  0.9622  1.8680       93026.2985
2024       58731.4760  0.7568  0.5903  2.9326  1.1327       86334.9164
2025      124863.6936  0.3346  0.3763  4.4309  1.8929       90974.9976
2026      104453.1032  0.4770  0.4140  2.8077  1.2649       83065.9837
2027      156626.2349  0.3697  0.3812  0.7341  1.5997       84670.7173
2028      148949.5589  0.5050  0.5052  0.7590  1.4164       90335.8355
2029       52310.4613  1.0103  0.5944  0.1260  0.5225       75633.9886
2030       88898.5019  0.3687  0.5387  0.7840  0.8781       88491.3708
2031      126641.4368  0.2009  0.3131  0.9350  1.2159       89126.0997
2032      150547.2323  0.2865  0.4195  2.7652  1.3913      101852.0314
2033      131385.1405  0.3091  0.4093  1.2559  1.2496      100027.0363
2034      167932.8000  0.2628  0.3011  1.8108  1.6268      104221.2310
2035      135935.0003  0.2283  0.2219  1.8403  1.2941       99917.1834
2036      137267.1672  0.1557  0.2512  1.3200  1.3426      100673.6311
2037      136934.4215  0.1520  0.2588  1.2892  1.3246       99401.0528
2038      231085.9797  0.1319  0.2473  1.1740  2.2077      104627.1671
2039      199912.3925  0.1427  0.2428  2.0191  1.8876       94199.8923
2040      287372.7598  0.1226  0.2185  1.5462  2.5084      107839.8213
2041      224922.4505  0.1489  0.2587  2.5317  1.9410      111060.9624
2042      265689.7491  0.1689  0.2580  1.2234  2.0894      119306.7916
2043      251605.9957  0.1926  0.2823  1.8595  1.9458      118984.5537
2044      160662.3487  0.3020  0.2419  0.5735  1.4294      103156.2949
2045      178226.9736  0.2844  0.2290  2.6025  1.9402      115311.9982
