Year Ft Rg C
2019  3  1  3304.8524
2020  3  1  2519.8366
2021  3  1  3136.9930
2022  3  1  3019.7689
2023  3  1  3453.9879
2024  3  1  2215.2933
2025  3  1  1998.9700
2026  3  1  2732.6292
2027  3  1  3564.5302
2028  3  1  6135.1714
2029  3  1  4491.6081
2030  3  1  3084.3524
2031  3  1  3189.6054
2032  3  1  3960.5400
2033  3  1  3792.4672
2034  3  1  3660.0584
2035  3  1  3282.4019
2036  3  1  2560.0420
2037  3  1  2247.9605
2038  3  1  3541.9523
2039  3  1  3082.9053
2040  3  1  3399.3685
2041  3  1  2130.0400
2042  3  1  3266.0441
2043  3  1  3491.1191
2044  3  1  2789.4748
2045  3  1  2446.5288
