pseudo ref pts
2019       18443.3647  0.5573  0.5429  0.6653  0.6340       29222.0176
2020       28255.3282  0.2843  0.4941  0.9421  0.9503       32925.7073
2021       32811.8465  0.2667  0.4771  0.5590  1.1331       31739.4726
2022       44023.9084  0.3356  0.4513  0.6835  1.5780       33058.4222
2023       38421.8897  0.4044  0.4114  0.9611  1.4952       31085.9315
2024       20984.0848  1.0377  0.5949  2.9278  0.9093       28679.1414
2025       39770.1444  0.4923  0.3734  4.4244  1.5770       30475.5801
2026       31594.5447  0.4871  0.4140  2.8063  1.1120       27650.0303
2027       48751.0979  0.3861  0.3812  0.7343  1.5260       28235.3615
2028       47097.4286  0.5230  0.5052  0.7594  1.4110       30057.7764
2029       16640.9680  1.0104  0.5944  0.1260  0.5318       25192.4212
2030       28615.7150  0.3562  0.5387  0.7842  0.8882       29483.7104
2031       41412.8827  0.1833  0.3131  0.9351  1.2299       29629.5366
2032       50205.3265  0.3219  0.4228  2.7647  1.4137       33923.1451
2033       42901.0057  0.3179  0.4093  1.2559  1.2566       33374.2053
2034       54833.1321  0.2800  0.3011  1.8108  1.6271       34786.4405
2035       44071.3087  0.2450  0.2219  1.8403  1.2821       33373.4358
2036       44248.6546  0.1561  0.2512  1.3199  1.3368       33549.9767
2037       44541.9332  0.1396  0.2569  1.2892  1.3232       33117.9815
2038       76731.3492  0.1261  0.2473  1.1741  2.2258       34808.9501
2039       67019.6979  0.1390  0.2428  2.0195  1.9125       31336.5656
2040       96677.9909  0.1258  0.2185  1.5466  2.5369       35959.1703
2041       75069.4094  0.1353  0.2567  2.5322  1.9446       37058.2481
2042       90108.9767  0.1672  0.2580  1.2236  2.0974       39751.6154
2043       85110.7572  0.1953  0.2823  1.8596  1.9495       39676.9962
2044       53938.7486  0.3012  0.2419  0.5735  1.4329       34334.6910
2045       59733.0532  0.2764  0.2290  2.6012  1.9324       38367.1081
