Year Ft Rg C
2019  3  1  3304.8524
2020  3  1  2519.8366
2021  3  1  3136.9930
2022  3  1  5100.8574
2023  3  1  4769.2609
2024  3  1  2360.6895
2025  3  1  2297.2167
2026  3  1  1906.8617
2027  3  1  2704.1322
2028  3  1  3860.6772
2029  3  1  3391.9685
2030  3  1  2073.0300
2031  3  1  2709.1255
2032  3  1  2319.1778
2033  3  1  2449.1975
2034  3  1  2305.1515
2035  3  1  2111.7096
2036  3  1  1978.0622
2037  3  1  1844.0399
2038  3  1  2820.1911
2039  3  1  2521.2380
2040  3  1  2872.0268
2041  3  1  1923.5051
2042  3  1  2318.3439
2043  3  1  2582.5215
2044  3  1  2326.1274
2045  3  1  1954.3664
