pseudo ref pts
2019       18443.3647  0.5573  0.5429  0.6653  0.6340       29222.0176
2020       28255.3282  0.2843  0.4941  0.9421  0.9503       32925.7073
2021       32811.8465  0.2667  0.4771  0.5590  1.1331       31739.4726
2022       44023.9084  0.4073  0.4582  0.6835  1.5780       33051.9740
2023       36265.4873  0.4715  0.4146  0.9610  1.4712       31117.9434
2024       19195.5505  1.1182  0.5949  2.9271  0.8845       28710.5370
2025       37625.3130  0.5187  0.3763  4.4233  1.5589       30359.8489
2026       30555.5097  0.4399  0.4108  2.8060  1.1257       27687.0131
2027       48611.4696  0.3424  0.3782  0.7344  1.5704       28257.5922
2028       48072.0541  0.4496  0.4975  0.7595  1.4472       30189.9065
2029       17520.6489  0.8913  0.5898  0.1261  0.5470       25215.1162
2030       30868.7006  0.3003  0.5305  0.7843  0.9117       29532.6591
2031       44924.7011  0.1696  0.3107  0.9353  1.2543       29639.2664
2032       53699.1361  0.2703  0.4163  2.7650  1.4196       33982.7405
2033       46499.0287  0.2770  0.4062  1.2559  1.2581       33333.4806
2034       59391.9345  0.2438  0.2988  1.8109  1.6255       34791.5078
2035       47754.2813  0.2194  0.2202  1.8403  1.2876       33339.0766
2036       47593.8373  0.1475  0.2493  1.3199  1.3334       33518.6650
2037       47171.7392  0.1359  0.2549  1.2891  1.3130       33149.4581
2038       79967.7215  0.1181  0.2454  1.1740  2.1969       34875.2519
2039       69527.8806  0.1321  0.2410  2.0193  1.8895       31387.6978
2040       99861.3374  0.1196  0.2185  1.5465  2.5157       35859.8932
2041       77404.9239  0.1329  0.2567  2.5320  1.9376       36992.4429
2042       92276.9567  0.1541  0.2560  1.2235  2.0883       39802.1537
2043       88027.3435  0.1829  0.2801  1.8595  1.9499       39723.1346
2044       56175.4555  0.2852  0.2419  0.5735  1.4372       34277.1828
2045       62619.4272  0.2576  0.2273  2.6014  1.9477       38515.0809
