Year Ft Rg C
2019  3  1  3304.8524
2020  3  1  4567.3729
2021  3  1  4586.8978
2022  3  1  4545.1715
2023  3  1  5998.2387
2024  3  1  5166.3558
2025  3  1  5657.6382
2026  3  1  1609.1134
2027  3  1  2185.1635
2028  3  1  4170.3707
2029  3  1  3219.2750
2030  3  1  2731.0077
2031  3  1  3228.2093
2032  3  1  2690.8508
2033  3  1  2644.0390
2034  3  1  2866.1317
2035  3  1  2619.0197
2036  3  1  2268.6642
2037  3  1  2503.5945
2038  3  1  3145.2950
2039  3  1  2963.5015
2040  3  1  2760.9522
2041  3  1  2834.2135
2042  3  1  3067.9168
2043  3  1  3425.0819
2044  3  1  3162.1370
2045  3  1  3514.8411
