pseudo ref pts
2019       18443.3647  0.5580  0.5429  0.6653  0.6340       14610.6068
2020       27341.3838  0.4379  0.5054  0.9421  0.9196       16452.6169
2021       26981.7904  0.4275  0.4843  0.5589  1.0284       15910.5655
2022       30544.0172  0.5524  0.4582  0.6833  1.3998       16514.6738
2023       21184.2951  1.0550  0.4177  0.9592  1.2439       15545.5031
2024        7506.6888     NaN  0.6132  2.9147  0.6956       14364.6116
2025       11801.5417     NaN  0.3909  4.4037  1.2055       15186.0971
2026        8740.6562  0.5392  0.4204  2.7942  0.9116       13814.1779
2027       16862.5081  0.3781  0.3870  0.7331  1.5333       14143.8761
2028       18810.3046  0.5643  0.5129  0.7590  1.5662       15058.1768
2029        7017.1693  1.0393  0.6034  0.1265  0.6177       12616.1368
2030       12599.6617  0.4888  0.5509  0.7868  0.9685       14755.9576
2031       18117.1545  0.2625  0.3226  0.9376  1.2659       14840.1777
2032       21828.3941  0.3843  0.4292  2.7650  1.4256       16958.4063
2033       18790.2904  0.3730  0.4125  1.2560  1.2540       16748.9876
2034       24364.2902  0.3348  0.3058  1.8110  1.6351       17387.4317
2035       19699.0602  0.2944  0.2253  1.8403  1.2940       16677.5751
2036       19914.6271  0.2015  0.2551  1.3199  1.3490       16836.4284
2037       19944.9872  0.1928  0.2648  1.2893  1.3264       16565.0910
2038       33804.4231  0.1642  0.2530  1.1743  2.2147       17382.0425
2039       29350.6844  0.1911  0.2484  2.0201  1.8951       15678.4771
2040       41724.2842  0.1578  0.2218  1.5471  2.5058       17989.9852
2041       32524.3091  0.1950  0.2627  2.5328  1.9336       18544.9370
2042       38106.4849  0.2257  0.2619  1.2237  2.0731       19935.0269
2043       35286.4053  0.2693  0.2888  1.8594  1.9240       19795.6815
2044       21675.6957  0.4324  0.2456  0.5733  1.3976       17208.9335
2045       22520.0701  0.5029  0.2326  2.5970  1.8627       19248.5821
