Year Ft Rg C
2019  3  1  3304.8524
2020  3  1  2538.4195
2021  3  1  2979.0865
2022  3  1  3092.4718
2023  3  1  3626.3746
2024  3  1  2392.2553
2025  3  1  1957.1661
2026  3  1  2803.9765
2027  3  1  3217.1973
2028  3  1  5152.8715
2029  3  1  4189.6755
2030  3  1  3178.8358
2031  3  1  3898.6271
2032  3  1  2910.9725
2033  3  1  3365.4758
2034  3  1  4129.1918
2035  3  1  3715.7257
2036  3  1  2288.8751
2037  3  1  2423.3423
2038  3  1  3299.3397
2039  3  1  2760.5412
2040  3  1  3485.2158
2041  3  1  2586.7102
2042  3  1  3403.2938
2043  3  1  3493.2334
2044  3  1  2649.5076
2045  3  1  2392.2063
