pseudo ref pts
2019       18443.3647  0.5573  0.5429  0.6653  0.6340       29222.0176
2020       28255.3282  0.2852  0.4941  0.9421  0.9503       32930.8910
2021       32798.0513  0.2596  0.4771  0.5590  1.1328       31711.8093
2022       44185.7072  0.3380  0.4513  0.6835  1.5799       33061.9878
2023       38477.9684  0.4111  0.4114  0.9611  1.4961       31101.1508
2024       20911.4553  1.0644  0.5949  2.9278  0.9086       28702.7682
2025       39482.0519  0.4969  0.3734  4.4244  1.5712       30459.3850
2026       31411.1262  0.4901  0.4140  2.8062  1.1096       27666.6528
2027       48535.0967  0.3671  0.3812  0.7343  1.5256       28229.3865
2028       47395.6014  0.4818  0.5013  0.7594  1.4172       30182.4306
2029       17056.5507  0.9577  0.5944  0.1260  0.5369       25171.3168
2030       29642.1743  0.3538  0.5387  0.7842  0.8999       29505.3252
2031       42571.1888  0.1989  0.3155  0.9352  1.2378       29577.2937
2032       50603.0588  0.2895  0.4195  2.7648  1.4045       33971.2878
2033       43975.8458  0.3044  0.4093  1.2559  1.2514       33327.7785
2034       56242.1027  0.2874  0.3034  1.8108  1.6249       34672.8370
2035       44506.3659  0.2563  0.2219  1.8402  1.2828       33441.5906
2036       44046.9305  0.1510  0.2512  1.3199  1.3238       33511.3633
2037       44594.3819  0.1415  0.2569  1.2891  1.3131       33192.0638
2038       76643.8711  0.1229  0.2473  1.1740  2.2182       34787.3309
2039       67252.9932  0.1321  0.2428  2.0194  1.9176       31316.5172
2040       97722.5578  0.1261  0.2185  1.5466  2.5448       35961.4648
2041       75639.5053  0.1424  0.2587  2.5322  1.9504       36907.1515
2042       89771.2091  0.1704  0.2580  1.2236  2.0926       39793.2743
2043       84425.3293  0.1984  0.2823  1.8595  1.9372       39685.3104
2044       53374.6033  0.2960  0.2419  0.5735  1.4240       34346.6734
2045       59570.7805  0.2708  0.2290  2.6012  1.9323       38383.8446
