Year Ft Rg C
2019  3  1  3304.8524
2020  3  1  4414.3363
2021  3  1  4721.2851
2022  3  1  5186.3373
2023  3  1  4627.2281
2024  3  1  3097.2082
2025  3  1  3609.2258
2026  3  1  5841.4415
2027  3  1  5639.6376
2028  3  1 10643.5498
2029  3  1  6942.7552
2030  3  1  4288.1146
2031  3  1  4940.4179
2032  3  1  5490.2246
2033  3  1  6267.7297
2034  3  1  6023.0146
2035  3  1  4934.1811
2036  3  1  4926.9313
2037  3  1  5399.0291
2038  3  1  6830.5560
2039  3  1  6321.1332
2040  3  1  5966.6320
2041  3  1  6429.9679
2042  3  1  5817.0504
2043  3  1  6645.0388
2044  3  1  5320.2461
2045  3  1  4642.0281
