pseudo ref pts
2019       18443.3647  0.5573  0.5429  0.6653  0.6340       29222.0176
2020       28255.3282  0.3709  0.5016  0.9421  0.9503       33043.1219
2021       31453.3740  0.3412  0.4843  0.5590  1.1092       31761.0781
2022       40807.9110  0.4347  0.4582  0.6835  1.5387       33065.6036
2023       33429.1794  0.4908  0.4146  0.9607  1.4291       31124.6997
2024       17950.0723  1.2237  0.5949  2.9264  0.8762       28827.3331
2025       35956.1524  0.5899  0.3792  4.4224  1.5779       30385.5541
2026       29387.2742  0.6492  0.4237  2.8062  1.1416       27623.2761
2027       44688.7518  0.4732  0.3870  0.7345  1.5619       28248.3829
2028       42981.4815  0.6815  0.5129  0.7596  1.4162       30105.8719
2029       14551.8347  1.2841  0.6034  0.1261  0.5218       25156.9018
2030       24045.4835  0.4461  0.5469  0.7841  0.8646       29507.1578
2031       35279.8858  0.2386  0.3179  0.9349  1.2047       29692.1891
2032       43503.3794  0.3865  0.4292  2.7642  1.4132       33897.4466
2033       37459.9602  0.4000  0.4156  1.2559  1.2730       33430.8256
2034       47965.5784  0.3532  0.3058  1.8110  1.6420       34779.8288
2035       38531.8933  0.2947  0.2253  1.8404  1.2859       33314.3328
2036       39318.3631  0.2126  0.2570  1.3199  1.3449       33547.9718
2037       39205.2565  0.2090  0.2628  1.2892  1.3258       33260.8311
2038       65878.8655  0.1769  0.2530  1.1741  2.2118       34774.4020
2039       56873.5881  0.2046  0.2484  2.0195  1.8833       31376.3340
2040       80603.5053  0.1679  0.2218  1.5465  2.4913       36023.9306
2041       62790.7281  0.2180  0.2627  2.5320  1.9275       37095.1573
2042       72647.9059  0.2278  0.2619  1.2235  2.0620       39832.0350
2043       68243.7664  0.2744  0.2866  1.8594  1.9242       39717.4394
2044       42208.3363  0.3977  0.2456  0.5734  1.4010       34347.1320
2045       45774.6463  0.3709  0.2308  2.6003  1.9007       38494.6656
