Year Ft Rg C
2019  3  1  3304.8524
2020  3  1  4959.9761
2021  3  1  6669.0694
2022  3  1  8421.6568
2023  3  1 11125.3894
2024  3  1  9340.3063
2025  3  1 12242.2216
2026  3  1 16651.5264
2027  3  1 17796.4262
2028  3  1 28332.5439
2029  3  1 19830.7452
2030  3  1 14025.4855
2031  3  1 15157.9989
2032  3  1 15856.9355
2033  3  1 18266.2348
2034  3  1 16077.4939
2035  3  1 14789.4213
2036  3  1 15585.6020
2037  3  1 16015.2297
2038  3  1 19320.1466
2039  3  1 16366.1541
2040  3  1 16713.9638
2041  3  1 16196.9453
2042  3  1 17069.0039
2043  3  1 18826.7426
2044  3  1 17981.1682
2045  3  1 15077.3997
