pseudo ref pts
2019       18443.3647  0.5544  0.5429  0.6653  0.6340       87666.0529
2020       31911.0055  0.3305  0.4978  0.9421  1.0733       99009.5022
2021       45747.8280  0.2822  0.4807  0.5590  1.3404       95533.3593
2022       72713.7311  0.2964  0.4616  0.6837  1.8676       98943.5228
2023       75256.7448  0.3041  0.4209  0.9621  1.7994       93119.3364
2024       51531.7112  0.9301  0.5995  2.9321  1.0981       86132.6079
2025      113422.2558  0.4201  0.3792  4.4304  1.8870       91206.1846
2026       96172.9074  0.6077  0.4237  2.8078  1.2796       82630.4405
2027      143082.8562  0.4784  0.3870  0.7342  1.6230       84662.9831
2028      133923.4425  0.6411  0.5090  0.7591  1.4129       90504.0026
2029       45514.4345  1.2526  0.5989  0.1260  0.5132       75747.3716
2030       74907.3620  0.4725  0.5469  0.7839  0.8555       88491.1653
2031      107503.1533  0.2492  0.3179  0.9350  1.1947       88893.5388
2032      130800.8979  0.3850  0.4292  2.7650  1.3938      101518.2813
2033      112472.1674  0.4019  0.4156  1.2559  1.2570      100120.8838
2034      143751.1136  0.3376  0.3058  1.8108  1.6324      104044.6183
2035      116843.7173  0.2955  0.2236  1.8403  1.2896      100330.6861
2036      118635.9901  0.2260  0.2551  1.3200  1.3470      100925.6163
2037      116540.0195  0.2122  0.2628  1.2892  1.3218       99672.3820
2038      195550.6117  0.1763  0.2511  1.1740  2.1961      104536.4946
2039      169485.3746  0.1896  0.2484  2.0191  1.8755       93811.4572
2040      244407.0657  0.1619  0.2218  1.5462  2.5077      107825.9984
2041      191408.9564  0.1939  0.2627  2.5317  1.9447      111010.1112
2042      226381.2419  0.2211  0.2619  1.2234  2.0929      119291.5908
2043      211858.5692  0.2611  0.2866  1.8595  1.9398      118977.5748
2044      131520.5659  0.4197  0.2456  0.5735  1.4118      103064.9453
2045      137986.5705  0.4044  0.2308  2.6021  1.8820      115453.5483
