Year Ft Rg C
2019  3  1  3304.8524
2020  3  1  4959.9761
2021  3  1  6669.0694
2022  3  1  8421.6568
2023  3  1 11125.3894
2024  3  1  9340.3063
2025  3  1 12242.2216
2026  3  1 16651.5264
2027  3  1 17796.4262
2028  3  1 28332.5439
2029  3  1 19830.7452
2030  3  1  9046.6152
2031  3  1  9943.4181
2032  3  1 10804.8275
2033  3  1 11863.5916
2034  3  1 11723.2701
2035  3  1 10016.7701
2036  3  1  9349.6408
2037  3  1  9725.5627
2038  3  1 14722.6652
2039  3  1 10928.1775
2040  3  1 12166.9715
2041  3  1 10437.8747
2042  3  1 11366.9425
2043  3  1 12654.6693
2044  3  1 10994.5255
2045  3  1  9845.5066
