pseudo ref pts
2019       18443.3647  0.5544  0.5429  0.6653  0.6340       87666.0529
2020       31911.0055  0.3305  0.4978  0.9421  1.0733       99009.5022
2021       45747.8280  0.2822  0.4807  0.5590  1.3404       95533.3593
2022       72713.7311  0.2964  0.4616  0.6837  1.8676       98943.5228
2023       75256.7448  0.3041  0.4209  0.9621  1.7994       93119.3364
2024       51531.7112  0.9301  0.5995  2.9321  1.0981       86132.6079
2025      113422.2558  0.4201  0.3792  4.4304  1.8870       91206.1846
2026       96172.9074  0.6077  0.4237  2.8078  1.2796       82630.4405
2027      143082.8562  0.4784  0.3870  0.7342  1.6230       84662.9831
2028      133923.4425  0.6411  0.5090  0.7591  1.4129       90504.0026
2029       45514.4345  1.2526  0.5989  0.1260  0.5132       75747.3716
2030       74907.3620  0.3831  0.5387  0.7839  0.8555       88329.5422
2031      111436.7561  0.1991  0.3131  0.9350  1.2112       88796.8682
2032      138657.2762  0.3187  0.4228  2.7651  1.4233      101514.2303
2033      121956.1912  0.3181  0.4093  1.2560  1.2915      100163.7876
2034      159202.6353  0.2867  0.3011  1.8109  1.6689      104379.3844
2035      129234.4649  0.2475  0.2219  1.8404  1.3079       99965.9693
2036      130844.0261  0.1720  0.2512  1.3201  1.3545      100779.6153
2037      130342.3884  0.1621  0.2588  1.2892  1.3263       99359.0315
2038      220978.6260  0.1494  0.2492  1.1740  2.2120      104243.8220
2039      189671.9589  0.1569  0.2428  2.0191  1.8848       94146.1177
2040      272586.5642  0.1390  0.2185  1.5462  2.5056      108021.9474
2041      211741.2474  0.1617  0.2587  2.5317  1.9310      110998.1797
2042      250709.6678  0.1853  0.2580  1.2234  2.0856      119352.6726
2043      236549.8750  0.2157  0.2845  1.8595  1.9401      118647.3297
2044      149332.5679  0.3310  0.2419  0.5735  1.4237      103328.0250
2045      163950.7820  0.3105  0.2290  2.6024  1.9241      115330.9191
