Year Ft Rg C
2019  3  1  3304.8524
2020  3  1  5074.6518
2021  3  1  4536.0557
2022  3  1  4494.7920
2023  3  1  5931.7530
2024  3  1  5109.0909
2025  3  1  5594.9279
2026  3  1  1427.0761
2027  3  1  1764.4695
2028  3  1  5414.2301
2029  3  1  3674.3077
2030  3  1  3117.0257
2031  3  1  3684.5050
2032  3  1  2608.7382
2033  3  1  3184.0388
2034  3  1  1936.9114
2035  3  1  1877.7052
2036  3  1  1233.9534
2037  3  1  1375.3291
2038  3  1  2212.6018
2039  3  1  1895.1179
2040  3  1  2649.5524
2041  3  1  2480.6793
2042  3  1  3271.3913
2043  3  1  3534.6157
2044  3  1  3263.2618
2045  3  1  3627.2454
