pseudo ref pts
2019       18443.3647  0.5580  0.5429  0.6653  0.6340       14610.6068
2020       27341.3838  0.4592  0.5054  0.9421  0.9196       16513.4375
2021       26668.3456  0.4253  0.4843  0.5589  1.0227       15920.9834
2022       30280.7485  0.5452  0.4582  0.6833  1.3957       16523.5025
2023       21140.2834  1.0229  0.4177  0.9592  1.2420       15553.8138
2024        7607.8423     NaN  0.6132  2.9149  0.7010       14372.4112
2025       11945.1272     NaN  0.3909  4.4041  1.2120       15194.3428
2026        8942.1179  0.4956  0.4204  2.7947  0.9184       13801.6515
2027       17313.3467  0.3280  0.3841  0.7332  1.5402       14143.1667
2028       19507.5002  0.6329  0.5168  0.7591  1.5784       15086.6292
2029        7018.9184  1.1269  0.6080  0.1265  0.6151       12592.2569
2030       12302.4798  0.5440  0.5550  0.7867  0.9553       14747.0680
2031       17411.6108  0.2986  0.3250  0.9373  1.2344       14831.2374
2032       20772.7186  0.3906  0.4292  2.7643  1.4027       16952.0107
2033       18105.0710  0.4225  0.4156  1.2558  1.2479       16706.2536
2034       23182.1173  0.2901  0.3034  1.8108  1.6291       17381.9637
2035       19768.9768  0.2465  0.2236  1.8404  1.3177       16682.0376
2036       20806.4208  0.1500  0.2512  1.3201  1.3865       16788.3992
2037       21591.9154  0.1394  0.2588  1.2899  1.3844       16569.6989
2038       37718.1155  0.1349  0.2492  1.1749  2.2943       17388.1137
2039       32826.2280  0.1463  0.2447  2.0211  1.9391       15673.9378
2040       47265.7852  0.1432  0.2218  1.5474  2.5444       17976.6090
2041       35976.0571  0.1737  0.2627  2.5330  1.9286       18503.9125
2042       41667.1607  0.2264  0.2619  1.2237  2.0581       19930.2416
2043       37285.4752  0.2764  0.2888  1.8592  1.8805       19783.6664
2044       22239.4285  0.4469  0.2456  0.5732  1.3636       17206.4243
2045       22509.1168  0.5531  0.2326  2.5961  1.8072       19245.7755
