Year Ft Rg C
2019  3  1  3304.8524
2020  3  1  2442.3795
2021  3  1  2283.5640
2022  3  1  2262.7908
2023  3  1  2986.1930
2024  3  1  2572.0443
2025  3  1   956.3342
2026  3  1  1471.1133
2027  3  1  1621.2853
2028  3  1  2774.0419
2029  3  1  1646.3550
2030  3  1  1396.6524
2031  3  1  1477.5302
2032  3  1  1577.4203
2033  3  1  1805.8037
2034  3  1  1936.8032
2035  3  1  1578.8387
2036  3  1  1364.5505
2037  3  1  1337.3471
2038  3  1  1710.4322
2039  3  1  1704.1057
2040  3  1  1613.1954
2041  3  1  1966.6055
2042  3  1  1796.5493
2043  3  1  2048.3930
2044  3  1  1891.1371
2045  3  1  2102.0741
