pseudo ref pts
2019       18443.3647  0.5580  0.5429  0.6653  0.6340       14610.6068
2020       27341.3838  0.3318  0.4941  0.9421  0.9196       16490.9204
2021       28554.7485  0.2999  0.4735  0.5589  1.0570       15912.2229
2022       34749.2308  0.3846  0.4513  0.6834  1.4590       16477.6493
2023       27204.5630  0.5793  0.4114  0.9601  1.3477       15510.6514
2024       11908.5074  1.7186  0.5995  2.9222  0.7906       14363.2068
2025       18255.1084  0.8550  0.3763  4.4156  1.3119       15186.9789
2026       13541.9374  0.5303  0.4172  2.8009  0.9494       13795.8243
2027       21849.6204  0.3811  0.3812  0.7334  1.4198       14128.3823
2028       22004.6912  0.4858  0.5052  0.7588  1.4194       15060.3241
2029        8071.7632  0.8636  0.5944  0.1261  0.5543       12564.1858
2030       14604.2419  0.3288  0.5387  0.7850  0.9273       14707.3527
2031       21372.2374  0.1658  0.3131  0.9359  1.2698       14816.1470
2032       26039.9717  0.2821  0.4228  2.7649  1.4433       16943.1242
2033       22595.6322  0.2985  0.4093  1.2561  1.2696       16696.6391
2034       28757.0889  0.2784  0.3034  1.8112  1.6357       17330.4689
2035       22717.0757  0.2419  0.2219  1.8404  1.2793       16693.9740
2036       22573.4944  0.1583  0.2512  1.3197  1.3227       16804.0359
2037       22509.6373  0.1444  0.2588  1.2890  1.3071       16557.9005
2038       38391.3097  0.1228  0.2473  1.1741  2.2039       17432.2474
2039       33620.4833  0.1403  0.2447  2.0198  1.9017       15649.6002
2040       48343.1944  0.1218  0.2185  1.5470  2.5278       18002.4161
2041       37750.7130  0.1565  0.2607  2.5328  1.9478       18502.6052
2042       44021.6019  0.1739  0.2599  1.2238  2.0792       19833.6794
2043       41419.1740  0.2093  0.2845  1.8595  1.9319       19795.7186
2044       25962.3212  0.3303  0.2419  0.5733  1.4116       17229.7792
2045       28132.6859  0.3381  0.2290  2.5987  1.9100       19271.8985
