Year Ft Rg C
2019  3  1  3304.8524
2020  3  1  5286.2926
2021  3  1  7555.4684
2022  3  1  8573.0196
2023  3  1 12454.1237
2024  3  1  9241.2892
2025  3  1 13094.3108
2026  3  1 17276.0004
2027  3  1 17481.1212
2028  3  1 28551.5336
2029  3  1 22240.0816
2030  3  1 10819.1128
2031  3  1 12370.6308
2032  3  1 17060.1799
2033  3  1 18180.2968
2034  3  1 16365.5742
2035  3  1 14798.1710
2036  3  1 14879.2427
2037  3  1 16190.8312
2038  3  1 19034.8602
2039  3  1 16592.7984
2040  3  1 16943.8146
2041  3  1 15576.4619
2042  3  1 16258.6280
2043  3  1 18872.4367
2044  3  1 16182.7641
2045  3  1 14483.0691
