pseudo ref pts
2019       18443.3647  0.5544  0.5429  0.6653  0.6340       87666.0529
2020       31911.0055  0.3465  0.4978  0.9421  1.0733       99153.4452
2021       45487.8175  0.3169  0.4843  0.5590  1.3364       95191.6279
2022       71327.1449  0.3044  0.4616  0.6837  1.8557       99016.6883
2023       73708.7017  0.3369  0.4209  0.9621  1.7866       93243.8698
2024       49830.4142  0.9377  0.5995  2.9320  1.0875       86157.5083
2025      111614.9994  0.4350  0.3792  4.4302  1.8917       91315.0465
2026       94926.5041  0.6259  0.4204  2.8078  1.2843       83057.8088
2027      141138.0833  0.4690  0.3870  0.7342  1.6346       84778.6107
2028      133397.9183  0.6375  0.5090  0.7591  1.4184       90555.9122
2029       45510.2328  1.3112  0.6034  0.1260  0.5154       75512.1626
2030       73888.6828  0.4122  0.5428  0.7839  0.8563       88452.1055
2031      108980.9827  0.2196  0.3155  0.9350  1.2038       88965.6925
2032      134694.9789  0.3907  0.4292  2.7650  1.4101      101635.8967
2033      114493.7708  0.3973  0.4156  1.2559  1.2714      100060.9135
2034      145736.1411  0.3401  0.3058  1.8108  1.6335      104049.9352
2035      117501.9686  0.2957  0.2253  1.8403  1.2795       99859.1452
2036      118927.1613  0.2177  0.2551  1.3200  1.3401      100960.9274
2037      117587.3768  0.2133  0.2628  1.2892  1.3199       99659.8455
2038      196621.3615  0.1733  0.2511  1.1740  2.1960      104577.7453
2039      170681.1240  0.1919  0.2484  2.0191  1.8783       93763.3740
2040      245041.5007  0.1640  0.2218  1.5462  2.5024      107796.5739
2041      191106.9399  0.1921  0.2627  2.5317  1.9402      110897.8489
2042      226473.9063  0.2157  0.2619  1.2234  2.0882      119197.3780
2043      213265.9548  0.2598  0.2866  1.8595  1.9421      118965.4839
2044      132355.5822  0.3951  0.2456  0.5735  1.4156      102968.7116
2045      141751.4436  0.3812  0.2308  2.6022  1.8975      115431.3769
