Year Ft Rg C
2019  3  1  3304.8524
2020  3  1  4489.7012
2021  3  1  4125.8809
2022  3  1  4088.3485
2023  3  1  5395.3717
2024  3  1  4647.0992
2025  3  1  5089.0041
2026  3  1   682.1656
2027  3  1  1142.2632
2028  3  1  2412.7428
2029  3  1  1911.9181
2030  3  1  1621.9376
2031  3  1  1480.3748
2032  3  1  1270.6883
2033  3  1  1817.0049
2034  3  1  1586.3931
2035  3  1  1411.2213
2036  3  1   944.8239
2037  3  1   954.3656
2038  3  1  1278.2400
2039  3  1  1292.8567
2040  3  1   920.7217
2041  3  1  1159.5579
2042  3  1  1095.1528
2043  3  1  1194.0388
2044  3  1  1102.3720
2045  3  1  1225.3303
