pseudo ref pts
2019       18443.3647  0.5580  0.5429  0.6653  0.6340       14610.6068
2020       27341.3838  0.4334  0.5054  0.9421  0.9196       16448.1097
2021       27045.2539  0.4048  0.4843  0.5589  1.0295       15864.2137
2022       31049.5387  0.5194  0.4582  0.6833  1.4070       16474.4091
2023       22073.5410  0.9375  0.4177  0.9594  1.2597       15507.6014
2024        8209.3340     NaN  0.6086  2.9163  0.7147       14391.6719
2025       12700.1598     NaN  0.3879  4.4064  1.2214       15214.7050
2026        9376.8486  0.3943  0.4108  2.7957  0.9147       13826.7587
2027       18211.7712  0.2767  0.3782  0.7331  1.5295       14147.3666
2028       20573.5814  0.4420  0.5013  0.7590  1.5753       15101.3741
2029        7895.7138  0.8116  0.5944  0.1264  0.6267       12593.3908
2030       14681.8803  0.3484  0.5387  0.7869  0.9919       14738.1316
2031       21433.8039  0.1639  0.3131  0.9378  1.2989       14810.2366
2032       26168.1122  0.2691  0.4195  2.7659  1.4551       16951.8195
2033       22891.2747  0.3019  0.4093  1.2563  1.2727       16672.1669
2034       28963.9328  0.2631  0.3011  1.8112  1.6380       17380.0072
2035       23096.0448  0.2374  0.2219  1.8404  1.2842       16645.4073
2036       22901.5973  0.1455  0.2493  1.3198  1.3233       16769.5143
2037       23002.1366  0.1333  0.2549  1.2891  1.3134       16616.7379
2038       39417.4727  0.1141  0.2454  1.1741  2.2113       17422.2659
2039       34633.5723  0.1301  0.2428  2.0199  1.9114       15624.8419
2040       49955.5438  0.1081  0.2168  1.5470  2.5373       17958.5382
2041       39437.2351  0.1355  0.2567  2.5329  1.9590       18533.7845
2042       46633.7861  0.1516  0.2560  1.2238  2.0985       19900.6877
2043       44471.6686  0.1802  0.2801  1.8597  1.9566       19852.7276
2044       28384.1872  0.2863  0.2401  0.5734  1.4330       17207.0305
2045       31522.1411  0.2790  0.2273  2.5996  1.9454       19246.4535
