Year Ft Rg C
2019  3  1  3304.8524
2020  3  1  4091.0211
2021  3  1  4409.9451
2022  3  1  5110.0035
2023  3  1  4843.3662
2024  3  1  2053.0894
2025  3  1  2291.7355
2026  3  1  2748.7026
2027  3  1  3999.8865
2028  3  1 10757.9228
2029  3  1  7183.6057
2030  3  1  2932.2979
2031  3  1  3292.4655
2032  3  1  6420.3063
2033  3  1  6372.7986
2034  3  1  4614.9236
2035  3  1  4260.4364
2036  3  1  2979.0917
2037  3  1  3361.9961
2038  3  1  7757.8283
2039  3  1  6562.9949
2040  3  1  5364.6162
2041  3  1  5069.9367
2042  3  1  6641.8321
2043  3  1  6667.5053
2044  3  1  4340.7518
2045  3  1  3985.2666
