pseudo ref pts
2019       18443.3647  0.5573  0.5429  0.6653  0.6340       29222.0176
2020       28255.3282  0.3530  0.5016  0.9421  0.9503       33001.3612
2021       31720.6305  0.3208  0.4843  0.5590  1.1139       31749.0864
2022       41541.4395  0.4238  0.4582  0.6835  1.5477       33075.0622
2023       34182.2657  0.4966  0.4146  0.9608  1.4400       31127.6932
2024       18166.6857  1.0713  0.5949  2.9265  0.8774       28700.4670
2025       37120.5706  0.4966  0.3763  4.4226  1.5886       30368.7300
2026       30670.3560  0.4734  0.4140  2.8062  1.1517       27668.6447
2027       48297.1052  0.3889  0.3812  0.7346  1.5961       28296.5731
2028       46889.4529  0.6480  0.5129  0.7597  1.4425       30102.3760
2029       15717.8452  1.2556  0.6034  0.1261  0.5289       25166.8413
2030       25617.6600  0.3695  0.5387  0.7841  0.8616       29483.3485
2031       37956.9575  0.1938  0.3131  0.9350  1.2005       29662.8278
2032       46984.6290  0.4068  0.4292  2.7642  1.4147       33954.1982
2033       38953.1139  0.4036  0.4156  1.2559  1.2645       33412.7861
2034       48918.6982  0.3134  0.3034  1.8108  1.6147       34811.1997
2035       40037.6566  0.2714  0.2236  1.8402  1.2701       33407.1695
2036       40949.4514  0.1665  0.2512  1.3199  1.3458       33654.1348
2037       41959.0774  0.1599  0.2588  1.2892  1.3474       33197.8417
2038       72355.9901  0.1783  0.2530  1.1742  2.2535       34838.9002
2039       60449.7577  0.2028  0.2484  2.0196  1.8974       31380.1316
2040       83922.9992  0.1581  0.2218  1.5465  2.4699       35948.6009
2041       65128.0950  0.1884  0.2627  2.5319  1.8909       37003.3744
2042       76782.3838  0.2362  0.2639  1.2234  2.0577       39689.7336
2043       70075.7252  0.2729  0.2866  1.8593  1.9165       39718.4539
2044       42965.5952  0.3668  0.2438  0.5734  1.3932       34419.4774
2045       47639.0346  0.3375  0.2308  2.6003  1.8882       38432.7186
