Year Ft Rg C
2019  3  1  3304.8524
2020  3  1  5408.4933
2021  3  1  4733.5539
2022  3  1  4690.4936
2023  3  1  6190.0194
2024  3  1  5331.5389
2025  3  1  5838.5290
2026  3  1  1480.5509
2027  3  1  2362.9698
2028  3  1  5739.2962
2029  3  1  3775.1302
2030  3  1  3202.5565
2031  3  1  3785.6073
2032  3  1  2674.3717
2033  3  1  3264.1462
2034  3  1  3700.5299
2035  3  1  3504.5987
2036  3  1  3472.5571
2037  3  1  3699.1767
2038  3  1  4704.1572
2039  3  1  4331.1449
2040  3  1  3824.6330
2041  3  1  4372.2956
2042  3  1  4354.3870
2043  3  1  5070.2447
2044  3  1  4681.0000
2045  3  1  5203.1177
