pseudo ref pts
2019       18443.3647  0.5580  0.5429  0.6653  0.6340       14610.6068
2020       27341.3838  0.4749  0.5091  0.9421  0.9196       16463.7823
2021       26445.6773  0.4359  0.4879  0.5589  1.0186       15869.4908
2022       29863.4703  0.5611  0.4616  0.6832  1.3896       16463.7912
2023       20618.8496  1.0806  0.4209  0.9591  1.2320       15497.6066
2024        7265.2229     NaN  0.6132  2.9140  0.6929       14397.7409
2025       11824.6077     NaN  0.3909  4.4028  1.2209       15221.1211
2026        8759.6153  0.5062  0.4204  2.7942  0.9222       13793.6012
2027       17030.3782  0.3913  0.3899  0.7333  1.5528       14089.8840
2028       18847.1330  0.6773  0.5206  0.7592  1.5668       15033.7271
2029        6724.4117  1.1756  0.6080  0.1265  0.6110       12612.4136
2030       11758.2011  0.5626  0.5591  0.7866  0.9451       14713.6897
2031       16762.6277  0.3077  0.3274  0.9373  1.2333       14797.6686
2032       20196.7194  0.3936  0.4324  2.7642  1.4102       16908.1216
2033       17766.4582  0.4206  0.4187  1.2559  1.2589       16663.0008
2034       22969.1914  0.3906  0.3104  1.8110  1.6448       17342.3209
2035       18332.0349  0.3566  0.2287  1.8404  1.2963       16652.6720
2036       18310.4743  0.2730  0.2609  1.3198  1.3365       16805.0668
2037       17855.5129  0.2681  0.2687  1.2891  1.3035       16582.0114
2038       29443.4802  0.2260  0.2568  1.1741  2.1662       17423.1590
2039       25128.0742  0.2680  0.2540  2.0196  1.8505       15640.1396
2040       35136.3225  0.2059  0.2252  1.5467  2.4551       17993.6438
2041       27584.4512  0.2752  0.2687  2.5323  1.9164       18496.9696
2042       31767.8466  0.3056  0.2679  1.2236  2.0549       19887.6569
2043       29034.6807  0.3803  0.2932  1.8592  1.9098       19842.8295
2044       17214.0341  0.6421  0.2512  0.5731  1.3678       17153.9500
2045       16740.8612  1.5188  0.2378  2.5937  1.7968       19187.0817
