Year Ft Rg C
2019  3  1  3304.8524
2020  3  1  4695.7332
2021  3  1  4437.5007
2022  3  1  4397.1335
2023  3  1  5802.8736
2024  3  1  4998.0855
2025  3  1  5473.3667
2026  3  1  1260.4902
2027  3  1  2140.0252
2028  3  1  4617.1413
2029  3  1  3335.5372
2030  3  1  2829.6365
2031  3  1  3344.7942
2032  3  1  2230.7213
2033  3  1  2444.3910
2034  3  1  2222.9877
2035  3  1  2025.3675
2036  3  1  1999.3293
2037  3  1  2137.2246
2038  3  1  2352.1634
2039  3  1  2273.8675
2040  3  1  2212.1221
2041  3  1  2194.5610
2042  3  1  2372.6635
2043  3  1  2914.7694
2044  3  1  2691.0014
2045  3  1  2991.1551
