pseudo ref pts
2019       18443.3647  0.5580  0.5429  0.6653  0.6340       14610.6068
2020       27341.3838  0.4442  0.5054  0.9421  0.9196       16464.7655
2021       26891.6077  0.4206  0.4843  0.5589  1.0267       15900.2758
2022       30588.5605  0.5409  0.4582  0.6833  1.4004       16505.7223
2023       21407.6814  1.0105  0.4177  0.9592  1.2475       15537.0770
2024        7729.9729     NaN  0.6132  2.9152  0.7027       14353.8636
2025       12039.9768     NaN  0.3909  4.4046  1.2097       15174.7345
2026        8976.4296  0.4743  0.4172  2.7948  0.9148       13826.2866
2027       17408.2379  0.3677  0.3870  0.7331  1.5360       14139.4168
2028       19294.3402  0.5921  0.5129  0.7590  1.5690       15083.9174
2029        7068.2307  1.0721  0.6034  0.1264  0.6148       12620.3649
2030       12548.9019  0.5051  0.5550  0.7867  0.9575       14693.3770
2031       17932.2896  0.2732  0.3250  0.9374  1.2511       14777.2400
2032       21515.9095  0.3507  0.4292  2.7647  1.4156       16911.8688
2033       18965.4248  0.3562  0.4125  1.2559  1.2589       16721.1517
2034       24788.4339  0.2949  0.3034  1.8111  1.6494       17405.4402
2035       20528.3661  0.2527  0.2236  1.8406  1.3182       16691.3184
2036       21142.3751  0.1825  0.2551  1.3201  1.3719       16776.8502
2037       21136.7487  0.1727  0.2628  1.2896  1.3442       16567.5622
2038       35832.0497  0.1396  0.2511  1.1745  2.2271       17369.6150
2039       31419.8909  0.1609  0.2466  2.0203  1.9003       15668.1983
2040       45115.1997  0.1378  0.2201  1.5471  2.5226       18007.8892
2041       35210.9375  0.1672  0.2627  2.5328  1.9474       18452.5314
2042       41482.9543  0.1932  0.2619  1.2238  2.0848       19834.8174
2043       38836.8071  0.2395  0.2866  1.8595  1.9351       19819.5985
2044       23944.1218  0.3847  0.2456  0.5733  1.4070       17147.8075
2045       25147.6537  0.4249  0.2326  2.5979  1.8784       19180.2112
