Year Ft Rg C
2019  3  1  3304.8524
2020  3  1  2735.9865
2021  3  1  3316.5324
2022  3  1  3382.2969
2023  3  1  3093.4687
2024  3  1  1931.4939
2025  3  1  2257.6459
2026  3  1  3187.9099
2027  3  1  4078.1259
2028  3  1  5905.4058
2029  3  1  4348.7413
2030  3  1  3235.5903
2031  3  1  3932.4212
2032  3  1  4663.5192
2033  3  1  4068.3714
2034  3  1  3293.3099
2035  3  1  3209.7964
2036  3  1  2266.1213
2037  3  1  2647.6741
2038  3  1  2751.3295
2039  3  1  2584.9948
2040  3  1  3448.3847
2041  3  1  2713.5138
2042  3  1  3295.5718
2043  3  1  3351.8128
2044  3  1  2530.0466
2045  3  1  2262.3790
