pseudo ref pts
2019       18443.3647  0.5573  0.5429  0.6653  0.6340       29222.0176
2020       28255.3282  0.2954  0.4941  0.9421  0.9503       32974.0659
2021       32636.4354  0.2792  0.4771  0.5590  1.1300       31739.6104
2022       43534.1638  0.3519  0.4547  0.6835  1.5722       32941.1669
2023       37570.8904  0.3985  0.4114  0.9610  1.4845       31045.2513
2024       20729.3692  0.9808  0.5949  2.9277  0.9073       28673.0992
2025       40027.2146  0.4856  0.3763  4.4243  1.5890       30372.1198
2026       31857.4321  0.5047  0.4172  2.8064  1.1233       27580.4301
2027       48796.0833  0.4042  0.3812  0.7344  1.5326       28323.5385
2028       46767.9400  0.5153  0.5052  0.7594  1.4049       30056.4669
2029       16610.2286  1.0033  0.5944  0.1260  0.5297       25171.8599
2030       28647.5808  0.3568  0.5428  0.7842  0.8878       29405.0093
2031       41419.9311  0.1963  0.3155  0.9351  1.2326       29652.3483
2032       49740.0427  0.3511  0.4260  2.7647  1.4097       33833.4188
2033       41855.7344  0.3359  0.4093  1.2559  1.2461       33411.4063
2034       53297.0723  0.2705  0.3011  1.8107  1.6118       34775.5097
2035       43605.5332  0.2398  0.2219  1.8402  1.2819       33377.5961
2036       44221.4835  0.1483  0.2512  1.3199  1.3477       33498.7411
2037       44919.0875  0.1431  0.2569  1.2892  1.3394       33238.7727
2038       76988.0631  0.1157  0.2454  1.1741  2.2360       34911.7986
2039       68100.1158  0.1288  0.2428  2.0196  1.9230       31280.6992
2040       99023.2150  0.1247  0.2185  1.5466  2.5499       35963.1430
2041       76489.6201  0.1457  0.2567  2.5322  1.9549       37090.4690
2042       90099.9703  0.1707  0.2580  1.2236  2.0866       39738.3394
2043       84562.4464  0.1970  0.2823  1.8595  1.9297       39659.8312
2044       53488.8709  0.2922  0.2419  0.5734  1.4195       34339.8936
2045       59873.1023  0.2668  0.2290  2.6011  1.9330       38367.0528
