Year Ft Rg C
2019  3  1  3304.8524
2020  3  1  2493.7629
2021  3  1  2753.4392
2022  3  1  3275.1600
2023  3  1  3285.8997
2024  3  1  2457.6544
2025  3  1  2779.1115
2026  3  1  3449.9752
2027  3  1  3498.2279
2028  3  1  5145.6641
2029  3  1  4222.3999
2030  3  1  2522.7918
2031  3  1  2979.9653
2032  3  1  3330.3490
2033  3  1  3797.6547
2034  3  1  2774.6766
2035  3  1  3244.9684
2036  3  1  3215.3055
2037  3  1  2999.2653
2038  3  1  4146.2783
2039  3  1  3589.1770
2040  3  1  3283.0728
2041  3  1  3406.2813
2042  3  1  3732.3353
2043  3  1  3605.8535
2044  3  1  3466.8426
2045  3  1  3076.2943
