pseudo ref pts
2019       18443.3647  0.5580  0.5429  0.6653  0.6340       14610.6068
2020       27341.3838  0.4334  0.5054  0.9421  0.9196       16448.1097
2021       27045.2539  0.4048  0.4843  0.5589  1.0295       15864.2137
2022       31049.5387  0.5194  0.4582  0.6833  1.4070       16474.4091
2023       22073.5410  0.9375  0.4177  0.9594  1.2597       15507.6014
2024        8209.3340     NaN  0.6086  2.9163  0.7147       14391.6719
2025       12700.1598     NaN  0.3879  4.4064  1.2214       15214.7050
2026        9376.8486  0.5617  0.4204  2.7957  0.9147       13828.4935
2027       17520.1842  0.3930  0.3870  0.7331  1.5052       14114.6182
2028       19135.1884  0.6145  0.5129  0.7589  1.5352       15084.8580
2029        6949.9689  1.0942  0.6034  0.1264  0.6013       12615.7279
2030       12304.3917  0.5079  0.5509  0.7863  0.9485       14765.3197
2031       17656.0662  0.2736  0.3226  0.9371  1.2483       14849.5933
2032       21303.0178  0.3599  0.4292  2.7645  1.4193       16929.8657
2033       18746.7472  0.3823  0.4156  1.2560  1.2624       16692.3567
2034       24247.4117  0.3442  0.3058  1.8111  1.6461       17400.7977
2035       19516.8707  0.3015  0.2253  1.8405  1.3003       16673.0325
2036       19694.4798  0.2177  0.2570  1.3199  1.3450       16775.3609
2037       19510.3621  0.2063  0.2648  1.2892  1.3187       16589.0310
2038       32865.3307  0.1689  0.2530  1.1743  2.2007       17400.7977
2039       28641.1201  0.1887  0.2484  2.0200  1.8866       15663.5457
2040       41165.2324  0.1516  0.2218  1.5470  2.5128       17967.8138
2041       32556.3485  0.1914  0.2627  2.5329  1.9524       18553.4087
2042       38339.0686  0.2227  0.2639  1.2239  2.0944       19843.8981
2043       35584.0996  0.2593  0.2866  1.8596  1.9385       19854.3787
2044       22059.5451  0.4117  0.2456  0.5733  1.4052       17176.2270
2045       23242.0369  0.4607  0.2326  2.5975  1.8778       19211.9991
