Year Ft Rg C
2019  3  1  3304.8524
2020  3  1  4327.6230
2021  3  1  5870.3554
2022  3  1  7320.5580
2023  3  1  9617.9852
2024  3  1 10363.1273
2025  3  1 13117.1186
2026  3  1 13487.4915
2027  3  1 14584.5146
2028  3  1 24537.3111
2029  3  1 18510.5972
2030  3  1 11184.3274
2031  3  1 11162.2950
2032  3  1 17762.4244
2033  3  1 18375.2859
2034  3  1 16477.8384
2035  3  1 15331.0390
2036  3  1  8998.2780
2037  3  1 10764.0769
2038  3  1 17119.5147
2039  3  1 14148.4333
2040  3  1 13933.2998
2041  3  1 12843.9555
2042  3  1 15143.1039
2043  3  1 16332.7386
2044  3  1 13877.9917
2045  3  1 11908.9510
