pseudo ref pts
2019       18443.3647  0.5544  0.5429  0.6653  0.6340       87666.0529
2020       31911.0055  0.2981  0.4978  0.9421  1.0733       98769.2526
2021       46290.2165  0.2513  0.4807  0.5590  1.3489       95320.1997
2022       74345.7838  0.2683  0.4582  0.6837  1.8819       99179.1883
2023       78063.5578  0.2722  0.4177  0.9621  1.8213       93291.3616
2024       53905.0897  0.9617  0.5995  2.9323  1.1101       86244.9617
2025      114970.0533  0.4425  0.3792  4.4306  1.8767       91307.0663
2026       95964.2888  0.5513  0.4204  2.8078  1.2615       82816.6929
2027      145355.3807  0.4227  0.3841  0.7342  1.6053       84886.5807
2028      138753.1797  0.5762  0.5090  0.7591  1.4216       90332.0881
2029       48130.3358  1.1482  0.5989  0.1260  0.5232       75671.9915
2030       80408.5460  0.4043  0.5428  0.7840  0.8715       88382.5298
2031      116188.1988  0.2016  0.3155  0.9350  1.2112       88795.7377
2032      142129.3562  0.3928  0.4292  2.7651  1.4058      101632.8904
2033      118487.9250  0.4010  0.4156  1.2559  1.2504      100038.4474
2034      148358.3026  0.3434  0.3058  1.8108  1.6090      104030.7808
2035      118238.9745  0.3083  0.2253  1.8402  1.2595       99845.2283
2036      117984.5051  0.1719  0.2532  1.3200  1.3214      100492.4222
2037      121698.9375  0.1662  0.2608  1.2891  1.3284       99346.9860
2038      210851.2496  0.1569  0.2511  1.1740  2.2444      104247.0783
2039      182696.5534  0.1676  0.2466  2.0191  1.9270       93955.9421
2040      263261.0091  0.1443  0.2201  1.5463  2.5342      107988.7081
2041      205723.3265  0.1687  0.2607  2.5317  1.9426      111164.1343
2042      244265.8971  0.2005  0.2619  1.2234  2.0935      119011.5888
2043      228308.0047  0.2357  0.2866  1.8595  1.9401      118690.6777
2044      142431.8254  0.3614  0.2438  0.5735  1.4154      103211.1205
2045      153826.8114  0.3375  0.2308  2.6023  1.9005      115158.1361
