Year Ft Rg C
2019  3  1  3304.8524
2020  3  1  5060.0957
2021  3  1  7566.9163
2022  3  1 10205.2672
2023  3  1 11860.1353
2024  3  1 12287.1088
2025  3  1 17565.3185
2026  3  1 27691.4692
2027  3  1 24605.5726
2028  3  1 41978.2251
2029  3  1 27284.9784
2030  3  1 14986.1932
2031  3  1 16766.1721
2032  3  1 28541.8932
2033  3  1 29183.4869
2034  3  1 17850.6572
2035  3  1 16968.0398
2036  3  1 24755.3579
2037  3  1 25418.4569
2038  3  1 33490.0341
2039  3  1 30544.7907
2040  3  1 19943.3253
2041  3  1 21143.0084
2042  3  1 23848.7909
2043  3  1 27791.5733
2044  3  1 23647.6580
2045  3  1 20579.4700
