pseudo ref pts
2019       18443.3647  0.5544  0.5429  0.6653  0.6340       87666.0529
2020       31911.0055  0.3366  0.4978  0.9421  1.0733       99013.7923
2021       45644.4342  0.3155  0.4843  0.5590  1.3388       95230.0594
2022       71544.0319  0.3478  0.4616  0.6837  1.8578       99172.2920
2023       71766.5956  0.3342  0.4209  0.9620  1.7738       93198.6547
2024       48981.1700  1.0734  0.6041  2.9319  1.0812       86282.1776
2025      108197.8615  0.5190  0.3850  4.4301  1.8713       91215.3743
2026       91472.6711  0.8117  0.4333  2.8078  1.2787       82775.5951
2027      132162.3019  0.5832  0.3929  0.7342  1.6093       84931.2493
2028      122690.1334  0.8202  0.5206  0.7591  1.3945       90196.4267
2029       39950.4846  1.5665  0.6080  0.1260  0.5002       75703.8806
2030       63069.5489  0.5521  0.5469  0.7839  0.8311       88596.5256
2031       93113.7582  0.2919  0.3179  0.9349  1.1768       89021.7430
2032      116602.3206  0.5966  0.4389  2.7649  1.4067      101664.1338
2033       93576.0343  0.6070  0.4218  1.2559  1.2561      100412.3592
2034      115700.6518  0.3872  0.3081  1.8108  1.5976      104092.8468
2035      100193.6760  0.3187  0.2270  1.8402  1.2763       99954.7756
2036      107744.7046  0.3149  0.2628  1.3200  1.3891      100558.4872
2037      103012.3946  0.3058  0.2687  1.2892  1.3639       99732.0437
2038      167530.9966  0.2793  0.2568  1.1740  2.1964      104591.0201
2039      138745.4876  0.3437  0.2540  2.0191  1.8118       93909.4013
2040      188235.5907  0.2056  0.2252  1.5461  2.3955      107764.2632
2041      155141.8004  0.2434  0.2667  2.5315  1.9101      111215.3122
2042      189996.7252  0.2782  0.2659  1.2234  2.1111      119586.8399
2043      179830.0669  0.3295  0.2932  1.8596  2.0052      118791.4378
2044      110916.8906  0.5292  0.2494  0.5735  1.4321      102875.0168
2045      113681.8952  0.5475  0.2343  2.6020  1.8730      115174.7810
