Year Ft Rg C
2019  3  1  3304.8524
2020  3  1  4414.3363
2021  3  1  4721.2851
2022  3  1  5115.5133
2023  3  1  4512.9868
2024  3  1  3308.2340
2025  3  1  3403.0357
2026  3  1  5753.5750
2027  3  1  5667.2823
2028  3  1  9713.4285
2029  3  1  7132.8265
2030  3  1  2687.5056
2031  3  1  2847.7913
2032  3  1  3540.1826
2033  3  1  3657.5930
2034  3  1  3695.1509
2035  3  1  3246.8662
2036  3  1  3185.0824
2037  3  1  3495.1640
2038  3  1  4879.3095
2039  3  1  3988.4994
2040  3  1  4108.4811
2041  3  1  3679.0713
2042  3  1  3621.1310
2043  3  1  4499.0818
2044  3  1  3304.1730
2045  3  1  3431.2806
