pseudo ref pts
2019       18443.3647  0.5573  0.5429  0.6653  0.6340       29222.0176
2020       28255.3282  0.3709  0.5016  0.9421  0.9503       33043.1219
2021       31453.3740  0.3412  0.4843  0.5590  1.1092       31761.0781
2022       40807.9110  0.4314  0.4582  0.6835  1.5387       33058.9468
2023       33510.9693  0.4883  0.4146  0.9607  1.4300       31094.2278
2024       18022.9285  1.2563  0.5995  2.9264  0.8773       28694.7077
2025       35809.0853  0.5793  0.3792  4.4225  1.5741       30369.4977
2026       29428.7099  0.6426  0.4237  2.8062  1.1410       27607.0017
2027       44811.8606  0.4715  0.3870  0.7345  1.5613       28255.0211
2028       43099.0478  0.6452  0.5129  0.7596  1.4196       30064.0579
2029       14803.8835  1.2720  0.6034  0.1261  0.5242       25179.8502
2030       24446.2887  0.3535  0.5387  0.7841  0.8683       29456.3696
2031       37035.3501  0.1777  0.3131  0.9350  1.2251       29597.3013
2032       46851.9012  0.3044  0.4228  2.7644  1.4427       33891.4135
2033       41475.4564  0.2996  0.4093  1.2561  1.3098       33371.9198
2034       54449.7543  0.2744  0.3011  1.8113  1.6853       34797.9659
2035       44222.0319  0.2363  0.2219  1.8408  1.3134       33375.5107
2036       44777.6313  0.1675  0.2512  1.3201  1.3573       33673.1820
2037       44460.5042  0.1631  0.2588  1.2893  1.3251       33208.4461
2038       74753.8452  0.1439  0.2492  1.1741  2.2035       34839.5017
2039       64248.8792  0.1577  0.2447  2.0194  1.8783       31328.9541
2040       91786.5998  0.1370  0.2201  1.5465  2.4947       35886.4429
2041       71233.5132  0.1616  0.2587  2.5320  1.9274       37095.7930
2042       84091.8415  0.1773  0.2580  1.2235  2.0787       39842.7957
2043       80005.6906  0.2190  0.2845  1.8595  1.9426       39569.1572
2044       50168.7162  0.3200  0.2419  0.5734  1.4231       34422.8992
2045       55553.1428  0.3070  0.2290  2.6010  1.9304       38496.4331
