pseudo ref pts
2019       18443.3647  0.5580  0.5429  0.6653  0.6340       14610.6068
2020       27341.3838  0.4334  0.5054  0.9421  0.9196       16448.1097
2021       27045.2539  0.4048  0.4843  0.5589  1.0295       15864.2137
2022       31049.5387  0.5194  0.4582  0.6833  1.4070       16474.4091
2023       22073.5410  0.9375  0.4177  0.9594  1.2597       15507.6014
2024        8209.3340     NaN  0.6086  2.9163  0.7147       14391.6719
2025       12700.1598     NaN  0.3879  4.4064  1.2214       15214.7050
2026        9376.8486  0.5617  0.4204  2.7957  0.9147       13828.4935
2027       17520.1842  0.3930  0.3870  0.7331  1.5052       14114.6182
2028       19135.1884  0.6145  0.5129  0.7589  1.5352       15084.8580
2029        6949.9689  1.0942  0.6034  0.1264  0.6013       12615.7279
2030       12304.3917  0.5079  0.5509  0.7863  0.9485       14765.3197
2031       17656.0662  0.2736  0.3226  0.9371  1.2483       14849.5933
2032       21303.0178  0.2899  0.4195  2.7645  1.4193       16990.0475
2033       19544.4743  0.2859  0.4062  1.2561  1.2794       16746.7595
2034       26408.7219  0.2634  0.3034  1.8115  1.6927       17337.5220
2035       21933.8808  0.2244  0.2219  1.8412  1.3520       16710.4349
2036       22579.3989  0.1611  0.2512  1.3205  1.3882       16825.2288
2037       22540.6910  0.1508  0.2588  1.2897  1.3446       16575.1937
2038       38235.7545  0.1345  0.2492  1.1745  2.2261       17386.6725
2039       33024.9003  0.1511  0.2447  2.0202  1.8903       15672.4179
2040       47112.0275  0.1269  0.2185  1.5470  2.5051       18013.3702
2041       36773.9928  0.1574  0.2607  2.5326  1.9333       18465.9547
2042       43183.6619  0.1826  0.2599  1.2237  2.0780       19861.0254
2043       40412.7726  0.2092  0.2823  1.8595  1.9329       19877.0723
2044       25512.8044  0.3256  0.2419  0.5733  1.4157       17213.4887
2045       27958.6905  0.3274  0.2290  2.5988  1.9174       19253.6772
