Year Ft Rg C
2019  3  1  3304.8524
2020  3  1  3678.8128
2021  3  1  3288.6257
2022  3  1  3258.7096
2023  3  1  4300.5017
2024  3  1  3704.0743
2025  3  1  1004.9546
2026  3  1  1135.1161
2027  3  1  1479.7923
2028  3  1  2577.0284
2029  3  1  2079.4535
2030  3  1  1764.0629
2031  3  1  2085.2245
2032  3  1  1563.2853
2033  3  1  1721.3196
2034  3  1  1655.8348
2035  3  1  1567.3424
2036  3  1  1654.7175
2037  3  1  1214.4200
2038  3  1  1750.6414
2039  3  1  1694.1691
2040  3  1  1452.9345
2041  3  1  1566.5675
2042  3  1  1880.7169
2043  3  1  2109.0059
2044  3  1  1947.0967
2045  3  1  2164.2755
