pseudo ref pts
2019       18443.3647  0.5580  0.5429  0.6653  0.6340       14610.6068
2020       27341.3838  0.3903  0.5016  0.9421  0.9196       16464.8997
2021       27664.4754  0.3527  0.4807  0.5589  1.0408       15875.0835
2022       32687.4443  0.4502  0.4547  0.6833  1.4303       16495.9522
2023       24394.0801  0.7343  0.4146  0.9597  1.3006       15527.8803
2024        9897.1271  2.7164  0.6041  2.9195  0.7527       14394.9141
2025       15203.8666  1.0860  0.3763  4.4114  1.2658       15186.0670
2026       12173.9763  0.4635  0.4140  2.7993  0.9636       13837.5613
2027       21019.4035  0.3326  0.3812  0.7336  1.4965       14124.5632
2028       22033.5454  0.4628  0.5052  0.7592  1.5095       15042.1829
2029        8198.0151  0.8901  0.5944  0.1263  0.5788       12603.6428
2030       14722.9662  0.3681  0.5387  0.7856  0.9440       14770.1358
2031       21171.3291  0.1947  0.3155  0.9364  1.2649       14854.4369
2032       25296.6009  0.2900  0.4228  2.7649  1.4216       16938.1822
2033       21991.6029  0.3024  0.4093  1.2560  1.2543       16681.8287
2034       28155.2623  0.2632  0.3011  1.8109  1.6286       17401.6057
2035       22705.9834  0.2351  0.2219  1.8403  1.2915       16696.8806
2036       22744.0458  0.1679  0.2532  1.3198  1.3380       16776.8287
2037       22440.6570  0.1391  0.2569  1.2891  1.3144       16630.6819
2038       38514.6782  0.1219  0.2473  1.1741  2.2064       17444.7691
2039       33743.2305  0.1377  0.2447  2.0199  1.8993       15657.7777
2040       48623.2457  0.1187  0.2185  1.5470  2.5353       17970.0220
2041       38095.9078  0.1453  0.2587  2.5329  1.9516       18538.9814
2042       44953.2854  0.1728  0.2599  1.2238  2.0911       19846.3239
2043       42110.7031  0.2072  0.2845  1.8596  1.9391       19808.7127
2044       26340.4245  0.3310  0.2438  0.5734  1.4145       17148.8110
2045       28386.3375  0.3414  0.2308  2.5987  1.9025       19181.3337
