Year Ft Rg C
2019  3  1  3304.8524
2020  3  1  5291.4719
2021  3  1  7532.8187
2022  3  1  9541.7747
2023  3  1 11728.7233
2024  3  1 10406.8285
2025  3  1 13401.6220
2026  3  1 16886.6970
2027  3  1 17836.5846
2028  3  1 28677.4319
2029  3  1 21317.9567
2030  3  1 15642.4840
2031  3  1 16765.4147
2032  3  1 19232.0911
2033  3  1 20233.6260
2034  3  1 17395.8021
2035  3  1 16162.1165
2036  3  1 15927.7288
2037  3  1 17410.3494
2038  3  1 20569.1541
2039  3  1 18090.9007
2040  3  1 17221.9606
2041  3  1 16455.0974
2042  3  1 18384.6495
2043  3  1 22128.4933
2044  3  1 16293.1972
2045  3  1 14018.6412
