pseudo ref pts
2019       18443.3647  0.5544  0.5429  0.6653  0.6340       87666.0529
2020       31911.0055  0.3476  0.4978  0.9421  1.0733       99125.8400
2021       45466.3566  0.3192  0.4843  0.5590  1.3360       95064.7090
2022       71197.2911  0.3310  0.4616  0.6837  1.8546       99124.1621
2023       72280.6454  0.3284  0.4209  0.9620  1.7765       93202.4174
2024       49399.9432  0.9939  0.5995  2.9319  1.0852       86292.5081
2025      110056.9570  0.4444  0.3792  4.4301  1.8848       91260.2369
2026       93786.6929  0.6250  0.4204  2.8078  1.2867       83002.3253
2027      140068.8447  0.4844  0.3870  0.7342  1.6347       84650.6968
2028      131773.7312  0.6462  0.5090  0.7591  1.4195       90572.6168
2029       44902.4530  1.2948  0.6034  0.1260  0.5153       75486.0245
2030       73406.3618  0.5180  0.5469  0.7839  0.8562       88658.3854
2031      104236.4816  0.2748  0.3179  0.9350  1.1886       89025.8815
2032      126113.4681  0.4223  0.4324  2.7650  1.3831      101883.3702
2033      107385.7590  0.4209  0.4187  1.2559  1.2462      100220.8072
2034      138175.4573  0.3580  0.3058  1.8108  1.6277      104164.5970
2035      112735.9640  0.3127  0.2253  1.8403  1.2901       99983.1948
2036      114816.5561  0.2319  0.2570  1.3200  1.3530      100534.8036
2037      113608.8057  0.2289  0.2628  1.2892  1.3280       99754.4317
2038      189584.6181  0.1776  0.2530  1.1740  2.1996      104639.9830
2039      165916.8671  0.1948  0.2503  2.0191  1.8826       93900.2073
2040      240237.9947  0.1660  0.2218  1.5462  2.5146      107862.0498
2041      188633.9274  0.1964  0.2627  2.5317  1.9554      111057.7552
2042      223815.1703  0.2310  0.2619  1.2234  2.0998      119430.2833
2043      207972.1667  0.2894  0.2866  1.8595  1.9393      119230.0948
2044      125962.8081  0.4132  0.2456  0.5735  1.3994      102993.0318
2045      134693.2051  0.3913  0.2308  2.6021  1.8719      115447.2208
